ITEM: TIMESTEP
0
ITEM: NUMBER OF ATOMS
489
ITEM: BOX BOUNDS pp pp pp
-8.5 8.5
-8.5 8.5
-8.5 8.5
ITEM: ATOMS id type x y z
1 1 -8.5 -8.5 -8.5
2 1 -8.5 -8.5 -5.1
3 1 -8.5 -8.5 -1.7
4 1 -8.5 -8.5 1.7
5 1 -8.5 -8.5 5.1
6 1 -8.5 -6.8 -6.8
7 1 -8.5 -6.8 -3.4
8 1 -8.5 -6.8 0.0
9 1 -8.5 -6.8 3.4
10 1 -8.5 -6.8 6.8
11 1 -8.5 -5.1 -8.5
12 1 -8.5 -5.1 -5.1
13 1 -8.5 -5.1 -1.7
14 1 -8.5 -5.1 1.7
15 1 -8.5 -5.1 5.1
16 1 -8.5 -3.4 -6.8
17 1 -8.5 -3.4 -3.4
18 1 -8.5 -3.4 0.0
19 1 -8.5 -3.4 3.4
20 1 -8.5 -3.4 6.8
21 1 -8.5 -1.7 -8.5
22 1 -8.5 -1.7 -5.1
23 1 -8.5 -1.7 -1.7
24 1 -8.5 -1.7 1.7
25 1 -8.5 -1.7 5.1
26 1 -8.5 0.0 -6.8
27 1 -8.5 0.0 -3.4
28 1 -8.5 0.0 0.0
29 1 -8.5 0.0 3.4
30 1 -8.5 0.0 6.8
31 1 -8.5 1.7 -8.5
32 1 -8.5 1.7 -5.1
33 1 -8.5 1.7 -1.7
34 1 -8.5 1.7 1.7
35 1 -8.5 1.7 5.1
36 1 -8.5 3.4 -6.8
37 1 -8.5 3.4 -3.4
38 1 -8.5 3.4 0.0
39 1 -8.5 3.4 3.4
40 1 -8.5 3.4 6.8
41 1 -8.5 5.1 -8.5
42 1 -8.5 5.1 -5.1
43 1 -8.5 5.1 -1.7
44 1 -8.5 5.1 1.7
45 1 -8.5 5.1 5.1
46 1 -8.5 6.8 -6.8
47 1 -8.5 6.8 -3.4
48 1 -8.5 6.8 0.0
49 1 -8.5 6.8 3.4
50 1 -8.5 6.8 6.8
51 1 -6.8 -8.5 -6.8
52 1 -6.8 -8.5 -3.4
53 1 -6.8 -8.5 0.0
54 1 -6.8 -8.5 3.4
55 1 -6.8 -8.5 6.8
56 1 -6.8 -6.8 -8.5
57 1 -6.8 -6.8 -5.1
58 1 -6.8 -6.8 -1.7
59 1 -6.8 -6.8 1.7
60 1 -6.8 -6.8 5.1
61 1 -6.8 -5.1 -6.8
62 1 -6.8 -5.1 -3.4
63 1 -6.8 -5.1 0.0
64 1 -6.8 -5.1 3.4
65 1 -6.8 -5.1 6.8
66 1 -6.8 -3.4 -8.5
67 1 -6.8 -3.4 -5.1
68 1 -6.8 -3.4 -1.7
69 1 -6.8 -3.4 1.7
70 1 -6.8 -3.4 5.1
71 1 -6.8 -1.7 -6.8
72 1 -6.8 -1.7 -3.4
73 1 -6.8 -1.7 0.0
74 1 -6.8 -1.7 3.4
75 1 -6.8 -1.7 6.8
76 1 -6.8 0.0 -8.5
77 1 -6.8 0.0 -5.1
78 1 -6.8 0.0 -1.7
79 1 -6.8 0.0 1.7
80 1 -6.8 0.0 5.1
81 1 -6.8 1.7 -6.8
82 1 -6.8 1.7 -3.4
83 1 -6.8 1.7 0.0
84 1 -6.8 1.7 3.4
85 1 -6.8 1.7 6.8
86 1 -6.8 3.4 -8.5
87 1 -6.8 3.4 -5.1
88 1 -6.8 3.4 -1.7
89 1 -6.8 3.4 1.7
90 1 -6.8 3.4 5.1
91 1 -6.8 5.1 -6.8
92 1 -6.8 5.1 -3.4
93 1 -6.8 5.1 0.0
94 1 -6.8 5.1 3.4
95 1 -6.8 5.1 6.8
96 1 -6.8 6.8 -8.5
97 1 -6.8 6.8 -5.1
98 1 -6.8 6.8 -1.7
99 1 -6.8 6.8 1.7
100 1 -6.8 6.8 5.1
101 1 -5.1 -8.5 -8.5
102 1 -5.1 -8.5 -5.1
103 1 -5.1 -8.5 -1.7
104 1 -5.1 -8.5 1.7
105 1 -5.1 -8.5 5.1
106 1 -5.1 -6.8 -6.8
107 1 -5.1 -6.8 -3.4
108 1 -5.1 -6.8 0.0
109 1 -5.1 -6.8 3.4
110 1 -5.1 -6.8 6.8
111 1 -5.1 -5.1 -8.5
112 1 -5.1 -5.1 -5.1
113 1 -5.1 -5.1 -1.7
114 1 -5.1 -5.1 1.7
115 1 -5.1 -5.1 5.1
116 1 -5.1 -3.4 -6.8
117 1 -5.1 -3.4 -3.4
118 1 -5.1 -3.4 0.0
119 1 -5.1 -3.4 3.4
120 1 -5.1 -3.4 6.8
121 1 -5.1 -1.7 -8.5
122 1 -5.1 -1.7 -5.1
123 1 -5.1 -1.7 -1.7
124 1 -5.1 -1.7 1.7
125 1 -5.1 -1.7 5.1
126 1 -5.1 0.0 -6.8
127 1 -5.1 0.0 -3.4
128 1 -5.1 0.0 0.0
129 1 -5.1 0.0 3.4
130 1 -5.1 0.0 6.8
131 1 -5.1 1.7 -8.5
132 1 -5.1 1.7 -5.1
133 1 -5.1 1.7 -1.7
134 1 -5.1 1.7 1.7
135 1 -5.1 1.7 5.1
136 1 -5.1 3.4 -6.8
137 1 -5.1 3.4 -3.4
138 1 -5.1 3.4 0.0
139 1 -5.1 3.4 3.4
140 1 -5.1 3.4 6.8
141 1 -5.1 5.1 -8.5
142 1 -5.1 5.1 -5.1
143 1 -5.1 5.1 -1.7
144 1 -5.1 5.1 1.7
145 1 -5.1 5.1 5.1
146 1 -5.1 6.8 -6.8
147 1 -5.1 6.8 -3.4
148 1 -5.1 6.8 0.0
149 1 -5.1 6.8 3.4
150 1 -5.1 6.8 6.8
151 1 -3.4 -8.5 -6.8
152 1 -3.4 -8.5 -3.4
153 1 -3.4 -8.5 0.0
154 1 -3.4 -8.5 3.4
155 1 -3.4 -8.5 6.8
156 1 -3.4 -6.8 -8.5
157 1 -3.4 -6.8 -5.1
158 1 -3.4 -6.8 -1.7
159 1 -3.4 -6.8 1.7
160 1 -3.4 -6.8 5.1
161 1 -3.4 -5.1 -6.8
162 1 -3.4 -5.1 -3.4
163 1 -3.4 -5.1 0.0
164 1 -3.4 -5.1 3.4
165 1 -3.4 -5.1 6.8
166 1 -3.4 -3.4 -8.5
167 1 -3.4 -3.4 -5.1
168 1 -3.4 -3.4 -1.7
169 1 -3.4 -3.4 1.7
170 1 -3.4 -3.4 5.1
171 1 -3.4 -1.7 -6.8
172 1 -3.4 -1.7 -3.4
173 1 -3.4 -1.7 0.0
174 1 -3.4 -1.7 3.4
175 1 -3.4 -1.7 6.8
176 1 -3.4 0.0 -8.5
177 1 -3.4 0.0 -5.1
178 1 -3.4 0.0 -1.7
179 1 -3.4 0.0 1.7
180 1 -3.4 0.0 5.1
181 1 -3.4 1.7 -6.8
182 1 -3.4 1.7 -3.4
183 1 -3.4 1.7 0.0
184 1 -3.4 1.7 3.4
185 1 -3.4 1.7 6.8
186 1 -3.4 3.4 -8.5
187 1 -3.4 3.4 -5.1
188 1 -3.4 3.4 -1.7
189 1 -3.4 3.4 1.7
190 1 -3.4 3.4 5.1
191 1 -3.4 5.1 -6.8
192 1 -3.4 5.1 -3.4
193 1 -3.4 5.1 0.0
194 1 -3.4 5.1 3.4
195 1 -3.4 5.1 6.8
196 1 -3.4 6.8 -8.5
197 1 -3.4 6.8 -5.1
198 1 -3.4 6.8 -1.7
199 1 -3.4 6.8 1.7
200 1 -3.4 6.8 5.1
201 1 -1.7 -8.5 -8.5
202 1 -1.7 -8.5 -5.1
203 1 -1.7 -8.5 -1.7
204 1 -1.7 -8.5 1.7
205 1 -1.7 -8.5 5.1
206 1 -1.7 -6.8 -6.8
207 1 -1.7 -6.8 -3.4
208 1 -1.7 -6.8 0.0
209 1 -1.7 -6.8 3.4
210 1 -1.7 -6.8 6.8
211 1 -1.7 -5.1 -8.5
212 1 -1.7 -5.1 -5.1
213 1 -1.7 -5.1 -1.7
214 1 -1.7 -5.1 1.7
215 1 -1.7 -5.1 5.1
216 1 -1.7 -3.4 -6.8
217 1 -1.7 -3.4 -3.4
218 1 -1.7 -3.4 0.0
219 1 -1.7 -3.4 3.4
220 1 -1.7 -3.4 6.8
221 1 -1.7 -1.7 -8.5
222 1 -1.7 -1.7 -5.1
225 1 -1.7 -1.7 5.1
226 1 -1.7 0.0 -6.8
227 1 -1.7 0.0 -3.4
229 1 -1.7 0.0 3.4
230 1 -1.7 0.0 6.8
231 1 -1.7 1.7 -8.5
232 1 -1.7 1.7 -5.1
235 1 -1.7 1.7 5.1
236 1 -1.7 3.4 -6.8
237 1 -1.7 3.4 -3.4
238 1 -1.7 3.4 0.0
239 1 -1.7 3.4 3.4
240 1 -1.7 3.4 6.8
241 1 -1.7 5.1 -8.5
242 1 -1.7 5.1 -5.1
243 1 -1.7 5.1 -1.7
244 1 -1.7 5.1 1.7
245 1 -1.7 5.1 5.1
246 1 -1.7 6.8 -6.8
247 1 -1.7 6.8 -3.4
248 1 -1.7 6.8 0.0
249 1 -1.7 6.8 3.4
250 1 -1.7 6.8 6.8
251 1 0.0 -8.5 -6.8
252 1 0.0 -8.5 -3.4
253 1 0.0 -8.5 0.0
254 1 0.0 -8.5 3.4
255 1 0.0 -8.5 6.8
256 1 0.0 -6.8 -8.5
257 1 0.0 -6.8 -5.1
258 1 0.0 -6.8 -1.7
259 1 0.0 -6.8 1.7
260 1 0.0 -6.8 5.1
261 1 0.0 -5.1 -6.8
262 1 0.0 -5.1 -3.4
263 1 0.0 -5.1 0.0
264 1 0.0 -5.1 3.4
265 1 0.0 -5.1 6.8
266 1 0.0 -3.4 -8.5
267 1 0.0 -3.4 -5.1
268 1 0.0 -3.4 -1.7
269 1 0.0 -3.4 1.7
270 1 0.0 -3.4 5.1
271 1 0.0 -1.7 -6.8
272 1 0.0 -1.7 -3.4
274 1 0.0 -1.7 3.4
275 1 0.0 -1.7 6.8
276 1 0.0 0.0 -8.5
277 1 0.0 0.0 -5.1
280 1 0.0 0.0 5.1
281 1 0.0 1.7 -6.8
282 1 0.0 1.7 -3.4
284 1 0.0 1.7 3.4
285 1 0.0 1.7 6.8
286 1 0.0 3.4 -8.5
287 1 0.0 3.4 -5.1
288 1 0.0 3.4 -1.7
289 1 0.0 3.4 1.7
290 1 0.0 3.4 5.1
291 1 0.0 5.1 -6.8
292 1 0.0 5.1 -3.4
293 1 0.0 5.1 0.0
294 1 0.0 5.1 3.4
295 1 0.0 5.1 6.8
296 1 0.0 6.8 -8.5
297 1 0.0 6.8 -5.1
298 1 0.0 6.8 -1.7
299 1 0.0 6.8 1.7
300 1 0.0 6.8 5.1
301 1 1.7 -8.5 -8.5
302 1 1.7 -8.5 -5.1
303 1 1.7 -8.5 -1.7
304 1 1.7 -8.5 1.7
305 1 1.7 -8.5 5.1
306 1 1.7 -6.8 -6.8
307 1 1.7 -6.8 -3.4
308 1 1.7 -6.8 0.0
309 1 1.7 -6.8 3.4
310 1 1.7 -6.8 6.8
311 1 1.7 -5.1 -8.5
312 1 1.7 -5.1 -5.1
313 1 1.7 -5.1 -1.7
314 1 1.7 -5.1 1.7
315 1 1.7 -5.1 5.1
316 1 1.7 -3.4 -6.8
317 1 1.7 -3.4 -3.4
318 1 1.7 -3.4 0.0
319 1 1.7 -3.4 3.4
320 1 1.7 -3.4 6.8
321 1 1.7 -1.7 -8.5
322 1 1.7 -1.7 -5.1
324 1 1.7 -1.7 1.7
325 1 1.7 -1.7 5.1
326 1 1.7 0.0 -6.8
327 1 1.7 0.0 -3.4
329 1 1.7 0.0 3.4
330 1 1.7 0.0 6.8
331 1 1.7 1.7 -8.5
332 1 1.7 1.7 -5.1
333 1 1.7 1.7 -1.7
334 1 1.7 1.7 1.7
335 1 1.7 1.7 5.1
336 1 1.7 3.4 -6.8
337 1 1.7 3.4 -3.4
338 1 1.7 3.4 0.0
339 1 1.7 3.4 3.4
340 1 1.7 3.4 6.8
341 1 1.7 5.1 -8.5
342 1 1.7 5.1 -5.1
343 1 1.7 5.1 -1.7
344 1 1.7 5.1 1.7
345 1 1.7 5.1 5.1
346 1 1.7 6.8 -6.8
347 1 1.7 6.8 -3.4
348 1 1.7 6.8 0.0
349 1 1.7 6.8 3.4
350 1 1.7 6.8 6.8
351 1 3.4 -8.5 -6.8
352 1 3.4 -8.5 -3.4
353 1 3.4 -8.5 0.0
354 1 3.4 -8.5 3.4
355 1 3.4 -8.5 6.8
356 1 3.4 -6.8 -8.5
357 1 3.4 -6.8 -5.1
358 1 3.4 -6.8 -1.7
359 1 3.4 -6.8 1.7
360 1 3.4 -6.8 5.1
361 1 3.4 -5.1 -6.8
362 1 3.4 -5.1 -3.4
363 1 3.4 -5.1 0.0
364 1 3.4 -5.1 3.4
365 1 3.4 -5.1 6.8
366 1 3.4 -3.4 -8.5
367 1 3.4 -3.4 -5.1
368 1 3.4 -3.4 -1.7
369 1 3.4 -3.4 1.7
370 1 3.4 -3.4 5.1
371 1 3.4 -1.7 -6.8
372 1 3.4 -1.7 -3.4
373 1 3.4 -1.7 0.0
374 1 3.4 -1.7 3.4
375 1 3.4 -1.7 6.8
376 1 3.4 0.0 -8.5
377 1 3.4 0.0 -5.1
378 1 3.4 0.0 -1.7
379 1 3.4 0.0 1.7
380 1 3.4 0.0 5.1
381 1 3.4 1.7 -6.8
382 1 3.4 1.7 -3.4
383 1 3.4 1.7 0.0
384 1 3.4 1.7 3.4
385 1 3.4 1.7 6.8
386 1 3.4 3.4 -8.5
387 1 3.4 3.4 -5.1
388 1 3.4 3.4 -1.7
389 1 3.4 3.4 1.7
390 1 3.4 3.4 5.1
391 1 3.4 5.1 -6.8
392 1 3.4 5.1 -3.4
393 1 3.4 5.1 0.0
394 1 3.4 5.1 3.4
395 1 3.4 5.1 6.8
396 1 3.4 6.8 -8.5
397 1 3.4 6.8 -5.1
398 1 3.4 6.8 -1.7
399 1 3.4 6.8 1.7
400 1 3.4 6.8 5.1
401 1 5.1 -8.5 -8.5
402 1 5.1 -8.5 -5.1
403 1 5.1 -8.5 -1.7
404 1 5.1 -8.5 1.7
405 1 5.1 -8.5 5.1
406 1 5.1 -6.8 -6.8
407 1 5.1 -6.8 -3.4
408 1 5.1 -6.8 0.0
409 1 5.1 -6.8 3.4
410 1 5.1 -6.8 6.8
411 1 5.1 -5.1 -8.5
412 1 5.1 -5.1 -5.1
413 1 5.1 -5.1 -1.7
414 1 5.1 -5.1 1.7
415 1 5.1 -5.1 5.1
416 1 5.1 -3.4 -6.8
417 1 5.1 -3.4 -3.4
418 1 5.1 -3.4 0.0
419 1 5.1 -3.4 3.4
420 1 5.1 -3.4 6.8
421 1 5.1 -1.7 -8.5
422 1 5.1 -1.7 -5.1
423 1 5.1 -1.7 -1.7
424 1 5.1 -1.7 1.7
425 1 5.1 -1.7 5.1
426 1 5.1 0.0 -6.8
427 1 5.1 0.0 -3.4
428 1 5.1 0.0 0.0
429 1 5.1 0.0 3.4
430 1 5.1 0.0 6.8
431 1 5.1 1.7 -8.5
432 1 5.1 1.7 -5.1
433 1 5.1 1.7 -1.7
434 1 5.1 1.7 1.7
435 1 5.1 1.7 5.1
436 1 5.1 3.4 -6.8
437 1 5.1 3.4 -3.4
438 1 5.1 3.4 0.0
439 1 5.1 3.4 3.4
440 1 5.1 3.4 6.8
441 1 5.1 5.1 -8.5
442 1 5.1 5.1 -5.1
443 1 5.1 5.1 -1.7
444 1 5.1 5.1 1.7
445 1 5.1 5.1 5.1
446 1 5.1 6.8 -6.8
447 1 5.1 6.8 -3.4
448 1 5.1 6.8 0.0
449 1 5.1 6.8 3.4
450 1 5.1 6.8 6.8
451 1 6.8 -8.5 -6.8
452 1 6.8 -8.5 -3.4
453 1 6.8 -8.5 0.0
454 1 6.8 -8.5 3.4
455 1 6.8 -8.5 6.8
456 1 6.8 -6.8 -8.5
457 1 6.8 -6.8 -5.1
458 1 6.8 -6.8 -1.7
459 1 6.8 -6.8 1.7
460 1 6.8 -6.8 5.1
461 1 6.8 -5.1 -6.8
462 1 6.8 -5.1 -3.4
463 1 6.8 -5.1 0.0
464 1 6.8 -5.1 3.4
465 1 6.8 -5.1 6.8
466 1 6.8 -3.4 -8.5
467 1 6.8 -3.4 -5.1
468 1 6.8 -3.4 -1.7
469 1 6.8 -3.4 1.7
470 1 6.8 -3.4 5.1
471 1 6.8 -1.7 -6.8
472 1 6.8 -1.7 -3.4
473 1 6.8 -1.7 0.0
474 1 6.8 -1.7 3.4
475 1 6.8 -1.7 6.8
476 1 6.8 0.0 -8.5
477 1 6.8 0.0 -5.1
478 1 6.8 0.0 -1.7
479 1 6.8 0.0 1.7
480 1 6.8 0.0 5.1
481 1 6.8 1.7 -6.8
482 1 6.8 1.7 -3.4
483 1 6.8 1.7 0.0
484 1 6.8 1.7 3.4
485 1 6.8 1.7 6.8
486 1 6.8 3.4 -8.5
487 1 6.8 3.4 -5.1
488 1 6.8 3.4 -1.7
489 1 6.8 3.4 1.7
490 1 6.8 3.4 5.1
491 1 6.8 5.1 -6.8
492 1 6.8 5.1 -3.4
493 1 6.8 5.1 0.0
494 1 6.8 5.1 3.4
495 1 6.8 5.1 6.8
496 1 6.8 6.8 -8.5
497 1 6.8 6.8 -5.1
498 1 6.8 6.8 -1.7
499 1 6.8 6.8 1.7
500 1 6.8 6.8 5.1
