ITEM: TIMESTEP
0
ITEM: NUMBER OF ATOMS
59
ITEM: BOX BOUNDS pp pp pp
-28.5532499834 28.5532499834
-28.5532499834 28.5532499834
-28.5532499834 28.5532499834
ITEM: ATOMS id type x y z
7579 1 -2.8553249983 -2.8553249983 -2.8553249983
7581 1 6.4537673012e-21 -2.8553249983 -2.8553249983
7583 1 2.8553249983 -2.8553249983 -2.8553249983
7619 1 -2.8553249983 6.4647805559e-21 -2.8553249983
6780 1 -1.4276624992 -1.4276624992 -4.2829874975
6782 1 1.4276624992 -1.4276624992 -4.2829874975
6820 1 -1.4276624992 1.4276624992 -4.2829874975
6822 1 1.4276624992 1.4276624992 -4.2829874975
7621 1 6.2290280708e-21 6.268262791e-21 -2.8553249983
7623 1 2.8553249983 6.2572495362e-21 -2.8553249983
7659 1 -2.8553249983 2.8553249983 -2.8553249983
7661 1 6.2613795067e-21 2.8553249983 -2.8553249983
7663 1 2.8553249983 2.8553249983 -2.8553249983
8379 1 -2.8553249983 -2.8553249983 -3.5526860025e-15
7540 1 -1.4276624992 -4.2829874975 -1.4276624992
7542 1 1.4276624992 -4.2829874975 -1.4276624992
8340 1 -1.4276624992 -4.2829874975 1.4276624992
8342 1 1.4276624992 -4.2829874975 1.4276624992
8381 1 6.2723927615e-21 -2.8553249983 -3.5526855162e-15
8383 1 2.8553249983 -2.8553249983 -3.5526812871e-15
7578 1 -4.2829874975 -1.4276624992 -1.4276624992
7618 1 -4.2829874975 1.4276624992 -1.4276624992
8378 1 -4.2829874975 -1.4276624992 1.4276624992
8418 1 -4.2829874975 1.4276624992 1.4276624992
8419 1 -2.8553249983 6.3453555744e-21 -3.5526857475e-15
7580 1 -1.4276624992 -1.4276624992 -1.4276624992
7582 1 1.4276624992 -1.4276624992 -1.4276624992
7620 1 -1.4276624992 1.4276624992 -1.4276624992
7622 1 1.4276624992 1.4276624992 -1.4276624992
8380 1 -1.4276624992 -1.4276624992 1.4276624992
8382 1 1.4276624992 -1.4276624992 1.4276624992
8420 1 -1.4276624992 1.4276624992 1.4276624992
8421 1 6.28615933e-21 6.1746501253e-21 -3.5526853565e-15
8422 1 1.4276624992 1.4276624992 1.4276624992
7584 1 4.2829874975 -1.4276624992 -1.4276624992
7624 1 4.2829874975 1.4276624992 -1.4276624992
8384 1 4.2829874975 -1.4276624992 1.4276624992
8423 1 2.8553249983 6.4389682401e-21 -3.5526812155e-15
8424 1 4.2829874975 1.4276624992 1.4276624992
8459 1 -2.8553249983 2.8553249983 -3.5526814082e-15
7660 1 -1.4276624992 4.2829874975 -1.4276624992
7662 1 1.4276624992 4.2829874975 -1.4276624992
8460 1 -1.4276624992 4.2829874975 1.4276624992
8461 1 6.28615933e-21 2.8553249983 -3.5526814578e-15
8462 1 1.4276624992 4.2829874975 1.4276624992
8463 1 2.8553249983 2.8553249983 -3.5526918984e-15
9179 1 -2.8553249983 -2.8553249983 2.8553249983
9181 1 6.0418027395e-21 -2.8553249983 2.8553249983
9183 1 2.8553249983 -2.8553249983 2.8553249983
9219 1 -2.8553249983 5.8938121284e-21 2.8553249983
9180 1 -1.4276624992 -1.4276624992 4.2829874975
9182 1 1.4276624992 -1.4276624992 4.2829874975
9220 1 -1.4276624992 1.4276624992 4.2829874975
9221 1 6.187040037e-21 6.2517429088e-21 2.8553249983
9222 1 1.4276624992 1.4276624992 4.2829874975
9223 1 2.8553249983 6.3618754566e-21 2.8553249983
9259 1 -2.8553249983 2.8553249983 2.8553249983
9261 1 6.4183183873e-21 2.8553249983 2.8553249983
9263 1 2.8553249983 2.8553249983 2.8553249983
