ITEM: TIMESTEP
0
ITEM: NUMBER OF ATOMS
28
ITEM: BOX BOUNDS pp pp pp
-28.5532499834 28.5532499834
-28.5532499834 28.5532499834
-28.5532499834 28.5532499834
ITEM: ATOMS id type x y z Cluster
4940 1 -1.4276624992 -18.5596124892 -9.9936374942 3
4980 1 -1.4276624992 -15.7042874909 -9.9936374942 3
5700 1 -1.4276624992 -21.4149374875 -7.1383124958 3
5738 1 -4.2829874975 -18.5596124892 -7.1383124958 3
5739 1 -2.8553249983 -19.9872749884 -8.565974995 3
6539 1 -2.8553249983 -19.9872749884 -5.7106499967 3
5741 1 0.0 -19.9872749884 -8.565974995 3
5742 1 1.4276624992 -18.5596124892 -7.1383124958 3
6541 1 3.4416421e-24 -19.9872749884 -5.7106499967 3
6617 1 -5.7106499967 -14.2766249917 -5.7106499967 3
5778 1 -4.2829874975 -15.7042874909 -7.1383124958 3
5779 1 -2.8553249983 -17.13194999 -8.565974995 3
5819 1 -2.8553249983 -14.2766249917 -8.565974995 3
6579 1 -2.8553249983 -17.13194999 -5.7106499967 3
5781 1 0.0 -17.13194999 -8.565974995 3
5782 1 1.4276624992 -15.7042874909 -7.1383124958 3
5821 1 -1.37665685e-23 -14.2766249917 -8.565974995 3
6581 1 2.7533137e-24 -17.13194999 -5.7106499967 3
6621 1 -2.84279639e-22 -14.2766249917 -5.7106499967 3
5818 1 -4.2829874975 -12.8489624925 -7.1383124958 3
6659 1 -2.8553249983 -11.4212999934 -5.7106499967 3
5820 1 -1.4276624992 -12.8489624925 -7.1383124958 3
6540 1 -1.4276624992 -18.5596124892 -4.2829874975 3
6578 1 -4.2829874975 -15.7042874909 -4.2829874975 3
7419 1 -2.8553249983 -14.2766249917 -2.8553249983 3
6580 1 -1.4276624992 -15.7042874909 -4.2829874975 3
6618 1 -4.2829874975 -12.8489624925 -4.2829874975 3
6620 1 -1.4276624992 -12.8489624925 -4.2829874975 3
