ITEM: TIMESTEP
0
ITEM: NUMBER OF ATOMS
20
ITEM: BOX BOUNDS pp pp pp
-28.5532499834 28.5532499834
-28.5532499834 28.5532499834
-28.5532499834 28.5532499834
ITEM: ATOMS id type x y z Cluster
9002 1 -27.1255874842 -12.8489624925 4.2829874975 4
9762 1 -27.1255874842 -15.7042874909 7.1383124958 4
9801 1 -28.5532499834 -14.2766249917 5.7106499967 4
9803 1 -25.697924985 -14.2766249917 5.7106499967 4
10563 1 -25.697924985 -17.13194999 8.565974995 4
10601 1 -28.5532499834 -14.2766249917 8.565974995 4
9764 1 -24.2702624859 -15.7042874909 7.1383124958 4
10605 1 -22.8425999867 -14.2766249917 8.565974995 4
9841 1 -28.5532499834 -11.4212999934 5.7106499967 4
9842 1 -27.1255874842 -9.9936374942 7.1383124958 4
9843 1 -25.697924985 -11.4212999934 5.7106499967 4
10641 1 -28.5532499834 -11.4212999934 8.565974995 4
10643 1 -25.697924985 -11.4212999934 8.565974995 4
9804 1 -24.2702624859 -12.8489624925 7.1383124958 4
9840 1 -29.9809124826 -12.8489624925 7.1383124958 4
10562 1 -27.1255874842 -15.7042874909 9.9936374942 4
11403 1 -25.697924985 -14.2766249917 11.4212999934 4
10564 1 -24.2702624859 -15.7042874909 9.9936374942 4
10602 1 -27.1255874842 -12.8489624925 9.9936374942 4
10604 1 -24.2702624859 -12.8489624925 9.9936374942 4
