ITEM: TIMESTEP
0
ITEM: NUMBER OF ATOMS
137
ITEM: BOX BOUNDS pp pp pp
-28.5532499834 28.5532499834
-28.5532499834 28.5532499834
-28.5532499834 28.5532499834
ITEM: ATOMS id type x y z Cluster
1139 1 -2.8553249983 -5.7106499967 -25.697924985 1
1141 1 0.0 -5.7106499967 -25.697924985 1
1179 1 -2.8553249983 -2.8553249983 -25.697924985 1
340 1 -1.4276624992 -4.2829874975 -27.1255874842 1
1181 1 0.0 -2.8553249983 -25.697924985 1
1860 1 -1.4276624992 -9.9936374942 -21.4149374875 1
1898 1 -4.2829874975 -7.1383124958 -21.4149374875 1
1899 1 -2.8553249983 -8.565974995 -22.8425999867 1
1939 1 -2.8553249983 -5.7106499967 -22.8425999867 1
1100 1 -1.4276624992 -7.1383124958 -24.2702624859 1
1901 1 0.0 -8.565974995 -22.8425999867 1
1902 1 1.4276624992 -7.1383124958 -21.4149374875 1
1941 1 0.0 -5.7106499967 -22.8425999867 1
1138 1 -4.2829874975 -4.2829874975 -24.2702624859 1
1938 1 -4.2829874975 -4.2829874975 -21.4149374875 1
1979 1 -2.8553249983 -2.8553249983 -22.8425999867 1
1142 1 1.4276624992 -4.2829874975 -24.2702624859 1
1942 1 1.4276624992 -4.2829874975 -21.4149374875 1
1981 1 0.0 -2.8553249983 -22.8425999867 1
1180 1 -1.4276624992 -1.4276624992 -24.2702624859 1
1980 1 -1.4276624992 -1.4276624992 -21.4149374875 1
2660 1 -1.4276624992 -9.9936374942 -18.5596124892 1
2698 1 -4.2829874975 -7.1383124958 -18.5596124892 1
2699 1 -2.8553249983 -8.565974995 -19.9872749884 1
2739 1 -2.8553249983 -5.7106499967 -19.9872749884 1
2701 1 2.502073821e-22 -8.565974995 -19.9872749884 1
2702 1 1.4276624992 -7.1383124958 -18.5596124892 1
2741 1 0.0 -5.7106499967 -19.9872749884 1
2738 1 -4.2829874975 -4.2829874975 -18.5596124892 1
2779 1 -2.8553249983 -2.8553249983 -19.9872749884 1
2742 1 1.4276624992 -4.2829874975 -18.5596124892 1
2781 1 0.0 -2.8553249983 -19.9872749884 1
2780 1 -1.4276624992 -1.4276624992 -18.5596124892 1
3499 1 -2.8553249983 -8.565974995 -17.13194999 1
3539 1 -2.8553249983 -5.7106499967 -17.13194999 1
3500 1 -1.4276624992 -7.1383124958 -15.7042874909 1
3501 1 3.9957465e-22 -8.565974995 -17.13194999 1
3541 1 0.0 -5.7106499967 -17.13194999 1
3579 1 -2.8553249983 -2.8553249983 -17.13194999 1
3540 1 -1.4276624992 -4.2829874975 -15.7042874909 1
3581 1 0.0 -2.8553249983 -17.13194999 1
4641 1 -28.5532499834 17.13194999 -14.2766249917 5
4643 1 -25.697924985 17.13194999 -14.2766249917 5
3842 1 -27.1255874842 18.5596124892 -15.7042874909 5
4681 1 -28.5532499834 19.9872749884 -14.2766249917 5
4683 1 -25.697924985 19.9872749884 -14.2766249917 5
4940 1 -1.4276624992 -18.5596124892 -9.9936374942 3
4980 1 -1.4276624992 -15.7042874909 -9.9936374942 3
5340 1 -1.4276624992 9.9936374942 -9.9936374942 2
5380 1 -1.4276624992 12.8489624925 -9.9936374942 2
4602 1 -27.1255874842 15.7042874909 -12.8489624925 5
5441 1 -28.5532499834 17.13194999 -11.4212999934 5
5443 1 -25.697924985 17.13194999 -11.4212999934 5
5442 1 -27.1255874842 18.5596124892 -9.9936374942 5
5481 1 -28.5532499834 19.9872749884 -11.4212999934 5
5483 1 -25.697924985 19.9872749884 -11.4212999934 5
4644 1 -24.2702624859 18.5596124892 -12.8489624925 5
4680 1 -29.9809124826 18.5596124892 -12.8489624925 5
4682 1 -27.1255874842 21.4149374875 -12.8489624925 5
5700 1 -1.4276624992 -21.4149374875 -7.1383124958 3
5738 1 -4.2829874975 -18.5596124892 -7.1383124958 3
5739 1 -2.8553249983 -19.9872749884 -8.565974995 3
6539 1 -2.8553249983 -19.9872749884 -5.7106499967 3
5741 1 0.0 -19.9872749884 -8.565974995 3
5742 1 1.4276624992 -18.5596124892 -7.1383124958 3
6541 1 3.4416421e-24 -19.9872749884 -5.7106499967 3
6617 1 -5.7106499967 -14.2766249917 -5.7106499967 3
5778 1 -4.2829874975 -15.7042874909 -7.1383124958 3
5779 1 -2.8553249983 -17.13194999 -8.565974995 3
5819 1 -2.8553249983 -14.2766249917 -8.565974995 3
6579 1 -2.8553249983 -17.13194999 -5.7106499967 3
5781 1 0.0 -17.13194999 -8.565974995 3
5782 1 1.4276624992 -15.7042874909 -7.1383124958 3
5821 1 -1.37665685e-23 -14.2766249917 -8.565974995 3
6581 1 2.7533137e-24 -17.13194999 -5.7106499967 3
6621 1 -2.84279639e-22 -14.2766249917 -5.7106499967 3
5818 1 -4.2829874975 -12.8489624925 -7.1383124958 3
6659 1 -2.8553249983 -11.4212999934 -5.7106499967 3
5820 1 -1.4276624992 -12.8489624925 -7.1383124958 3
6139 1 -2.8553249983 8.565974995 -8.565974995 2
6939 1 -2.8553249983 8.565974995 -5.7106499967 2
6100 1 -1.4276624992 7.1383124958 -7.1383124958 2
6141 1 0.0 8.565974995 -8.565974995 2
6941 1 -5.09363034e-23 8.565974995 -5.7106499967 2
6138 1 -4.2829874975 9.9936374942 -7.1383124958 2
6178 1 -4.2829874975 12.8489624925 -7.1383124958 2
6179 1 -2.8553249983 11.4212999934 -8.565974995 2
6979 1 -2.8553249983 11.4212999934 -5.7106499967 2
6142 1 1.4276624992 9.9936374942 -7.1383124958 2
6181 1 0.0 11.4212999934 -8.565974995 2
6182 1 1.4276624992 12.8489624925 -7.1383124958 2
6981 1 2.897862664e-22 11.4212999934 -5.7106499967 2
6219 1 -2.8553249983 14.2766249917 -8.565974995 2
7019 1 -2.8553249983 14.2766249917 -5.7106499967 2
6220 1 -1.4276624992 15.7042874909 -7.1383124958 2
6221 1 2.74643041e-22 14.2766249917 -8.565974995 2
7021 1 3.792689615e-22 14.2766249917 -5.7106499967 2
6540 1 -1.4276624992 -18.5596124892 -4.2829874975 3
6578 1 -4.2829874975 -15.7042874909 -4.2829874975 3
7419 1 -2.8553249983 -14.2766249917 -2.8553249983 3
6580 1 -1.4276624992 -15.7042874909 -4.2829874975 3
6618 1 -4.2829874975 -12.8489624925 -4.2829874975 3
6620 1 -1.4276624992 -12.8489624925 -4.2829874975 3
7739 1 -2.8553249983 8.565974995 -2.8553249983 2
6900 1 -1.4276624992 7.1383124958 -4.2829874975 2
7741 1 -7.2274485e-24 8.565974995 -2.8553249983 2
6938 1 -4.2829874975 9.9936374942 -4.2829874975 2
6978 1 -4.2829874975 12.8489624925 -4.2829874975 2
7779 1 -2.8553249983 11.4212999934 -2.8553249983 2
6942 1 1.4276624992 9.9936374942 -4.2829874975 2
6982 1 1.4276624992 12.8489624925 -4.2829874975 2
7781 1 1.796537186e-22 11.4212999934 -2.8553249983 2
7819 1 -2.8553249983 14.2766249917 -2.8553249983 2
7020 1 -1.4276624992 15.7042874909 -4.2829874975 2
7821 1 4.123087258e-22 14.2766249917 -2.8553249983 2
7740 1 -1.4276624992 9.9936374942 -1.4276624992 2
7780 1 -1.4276624992 12.8489624925 -1.4276624992 2
9002 1 -27.1255874842 -12.8489624925 4.2829874975 4
9762 1 -27.1255874842 -15.7042874909 7.1383124958 4
9801 1 -28.5532499834 -14.2766249917 5.7106499967 4
9803 1 -25.697924985 -14.2766249917 5.7106499967 4
10563 1 -25.697924985 -17.13194999 8.565974995 4
10601 1 -28.5532499834 -14.2766249917 8.565974995 4
9764 1 -24.2702624859 -15.7042874909 7.1383124958 4
10605 1 -22.8425999867 -14.2766249917 8.565974995 4
9841 1 -28.5532499834 -11.4212999934 5.7106499967 4
9842 1 -27.1255874842 -9.9936374942 7.1383124958 4
9843 1 -25.697924985 -11.4212999934 5.7106499967 4
10641 1 -28.5532499834 -11.4212999934 8.565974995 4
10643 1 -25.697924985 -11.4212999934 8.565974995 4
9804 1 -24.2702624859 -12.8489624925 7.1383124958 4
9840 1 -29.9809124826 -12.8489624925 7.1383124958 4
10562 1 -27.1255874842 -15.7042874909 9.9936374942 4
11403 1 -25.697924985 -14.2766249917 11.4212999934 4
10564 1 -24.2702624859 -15.7042874909 9.9936374942 4
10602 1 -27.1255874842 -12.8489624925 9.9936374942 4
10604 1 -24.2702624859 -12.8489624925 9.9936374942 4
