ITEM: TIMESTEP
0
ITEM: NUMBER OF ATOMS
14
ITEM: BOX BOUNDS pp pp pp
-28.5532499834 28.5532499834
-28.5532499834 28.5532499834
-28.5532499834 28.5532499834
ITEM: ATOMS id type x y z Cluster
4641 1 -28.5532499834 17.13194999 -14.2766249917 5
4643 1 -25.697924985 17.13194999 -14.2766249917 5
3842 1 -27.1255874842 18.5596124892 -15.7042874909 5
4681 1 -28.5532499834 19.9872749884 -14.2766249917 5
4683 1 -25.697924985 19.9872749884 -14.2766249917 5
4602 1 -27.1255874842 15.7042874909 -12.8489624925 5
5441 1 -28.5532499834 17.13194999 -11.4212999934 5
5443 1 -25.697924985 17.13194999 -11.4212999934 5
5442 1 -27.1255874842 18.5596124892 -9.9936374942 5
5481 1 -28.5532499834 19.9872749884 -11.4212999934 5
5483 1 -25.697924985 19.9872749884 -11.4212999934 5
4644 1 -24.2702624859 18.5596124892 -12.8489624925 5
4680 1 -29.9809124826 18.5596124892 -12.8489624925 5
4682 1 -27.1255874842 21.4149374875 -12.8489624925 5
