ITEM: TIMESTEP
0
ITEM: NUMBER OF ATOMS
34
ITEM: BOX BOUNDS pp pp pp
-28.5532499834 28.5532499834
-28.5532499834 28.5532499834
-28.5532499834 28.5532499834
ITEM: ATOMS id type x y z Cluster
5340 1 -1.4276624992 9.9936374942 -9.9936374942 2
5380 1 -1.4276624992 12.8489624925 -9.9936374942 2
6139 1 -2.8553249983 8.565974995 -8.565974995 2
6939 1 -2.8553249983 8.565974995 -5.7106499967 2
6100 1 -1.4276624992 7.1383124958 -7.1383124958 2
6141 1 0.0 8.565974995 -8.565974995 2
6941 1 -5.09363034e-23 8.565974995 -5.7106499967 2
6138 1 -4.2829874975 9.9936374942 -7.1383124958 2
6178 1 -4.2829874975 12.8489624925 -7.1383124958 2
6179 1 -2.8553249983 11.4212999934 -8.565974995 2
6979 1 -2.8553249983 11.4212999934 -5.7106499967 2
6142 1 1.4276624992 9.9936374942 -7.1383124958 2
6181 1 0.0 11.4212999934 -8.565974995 2
6182 1 1.4276624992 12.8489624925 -7.1383124958 2
6981 1 2.897862664e-22 11.4212999934 -5.7106499967 2
6219 1 -2.8553249983 14.2766249917 -8.565974995 2
7019 1 -2.8553249983 14.2766249917 -5.7106499967 2
6220 1 -1.4276624992 15.7042874909 -7.1383124958 2
6221 1 2.74643041e-22 14.2766249917 -8.565974995 2
7021 1 3.792689615e-22 14.2766249917 -5.7106499967 2
7739 1 -2.8553249983 8.565974995 -2.8553249983 2
6900 1 -1.4276624992 7.1383124958 -4.2829874975 2
7741 1 -7.2274485e-24 8.565974995 -2.8553249983 2
6938 1 -4.2829874975 9.9936374942 -4.2829874975 2
6978 1 -4.2829874975 12.8489624925 -4.2829874975 2
7779 1 -2.8553249983 11.4212999934 -2.8553249983 2
6942 1 1.4276624992 9.9936374942 -4.2829874975 2
6982 1 1.4276624992 12.8489624925 -4.2829874975 2
7781 1 1.796537186e-22 11.4212999934 -2.8553249983 2
7819 1 -2.8553249983 14.2766249917 -2.8553249983 2
7020 1 -1.4276624992 15.7042874909 -4.2829874975 2
7821 1 4.123087258e-22 14.2766249917 -2.8553249983 2
7740 1 -1.4276624992 9.9936374942 -1.4276624992 2
7780 1 -1.4276624992 12.8489624925 -1.4276624992 2
