ITEM: TIMESTEP
0
ITEM: NUMBER OF ATOMS
41
ITEM: BOX BOUNDS pp pp pp
-28.5532499834 28.5532499834
-28.5532499834 28.5532499834
-28.5532499834 28.5532499834
ITEM: ATOMS id type x y z Cluster
1139 1 -2.8553249983 -5.7106499967 -25.697924985 1
1141 1 0.0 -5.7106499967 -25.697924985 1
1179 1 -2.8553249983 -2.8553249983 -25.697924985 1
340 1 -1.4276624992 -4.2829874975 -27.1255874842 1
1181 1 0.0 -2.8553249983 -25.697924985 1
1860 1 -1.4276624992 -9.9936374942 -21.4149374875 1
1898 1 -4.2829874975 -7.1383124958 -21.4149374875 1
1899 1 -2.8553249983 -8.565974995 -22.8425999867 1
1939 1 -2.8553249983 -5.7106499967 -22.8425999867 1
1100 1 -1.4276624992 -7.1383124958 -24.2702624859 1
1901 1 0.0 -8.565974995 -22.8425999867 1
1902 1 1.4276624992 -7.1383124958 -21.4149374875 1
1941 1 0.0 -5.7106499967 -22.8425999867 1
1138 1 -4.2829874975 -4.2829874975 -24.2702624859 1
1938 1 -4.2829874975 -4.2829874975 -21.4149374875 1
1979 1 -2.8553249983 -2.8553249983 -22.8425999867 1
1142 1 1.4276624992 -4.2829874975 -24.2702624859 1
1942 1 1.4276624992 -4.2829874975 -21.4149374875 1
1981 1 0.0 -2.8553249983 -22.8425999867 1
1180 1 -1.4276624992 -1.4276624992 -24.2702624859 1
1980 1 -1.4276624992 -1.4276624992 -21.4149374875 1
2660 1 -1.4276624992 -9.9936374942 -18.5596124892 1
2698 1 -4.2829874975 -7.1383124958 -18.5596124892 1
2699 1 -2.8553249983 -8.565974995 -19.9872749884 1
2739 1 -2.8553249983 -5.7106499967 -19.9872749884 1
2701 1 2.502073821e-22 -8.565974995 -19.9872749884 1
2702 1 1.4276624992 -7.1383124958 -18.5596124892 1
2741 1 0.0 -5.7106499967 -19.9872749884 1
2738 1 -4.2829874975 -4.2829874975 -18.5596124892 1
2779 1 -2.8553249983 -2.8553249983 -19.9872749884 1
2742 1 1.4276624992 -4.2829874975 -18.5596124892 1
2781 1 0.0 -2.8553249983 -19.9872749884 1
2780 1 -1.4276624992 -1.4276624992 -18.5596124892 1
3499 1 -2.8553249983 -8.565974995 -17.13194999 1
3539 1 -2.8553249983 -5.7106499967 -17.13194999 1
3500 1 -1.4276624992 -7.1383124958 -15.7042874909 1
3501 1 3.9957465e-22 -8.565974995 -17.13194999 1
3541 1 0.0 -5.7106499967 -17.13194999 1
3579 1 -2.8553249983 -2.8553249983 -17.13194999 1
3540 1 -1.4276624992 -4.2829874975 -15.7042874909 1
3581 1 0.0 -2.8553249983 -17.13194999 1
