ITEM: TIMESTEP
0
ITEM: NUMBER OF ATOMS
78
ITEM: BOX BOUNDS pp pp pp
-28.5532499834 28.5532499834
-28.5532499834 28.5532499834
-28.5532499834 28.5532499834
ITEM: ATOMS id type x y z
6779 1 -2.8553249983 -2.8553249983 -5.7106499967
6781 1 6.1894491864e-21 -2.8553249983 -5.7106499967
6783 1 2.8553249983 -2.8553249983 -5.7106499967
6819 1 -2.8553249983 6.3326214986e-21 -5.7106499967
5980 1 -1.4276624992 -1.4276624992 -7.1383124958
5982 1 1.4276624992 -1.4276624992 -7.1383124958
6020 1 -1.4276624992 1.4276624992 -7.1383124958
6022 1 1.4276624992 1.4276624992 -7.1383124958
6821 1 6.4930020213e-21 6.4441307032e-21 -5.7106499967
6823 1 2.8553249983 6.6981238916e-21 -5.7106499967
6859 1 -2.8553249983 2.8553249983 -5.7106499967
6861 1 6.7022538621e-21 2.8553249983 -5.7106499967
6863 1 2.8553249983 2.8553249983 -5.7106499967
7539 1 -2.8553249983 -5.7106499967 -2.8553249983
7541 1 6.4978203203e-21 -5.7106499967 -2.8553249983
7543 1 2.8553249983 -5.7106499967 -2.8553249983
7577 1 -5.7106499967 -2.8553249983 -2.8553249983
6738 1 -4.2829874975 -4.2829874975 -4.2829874975
6740 1 -1.4276624992 -4.2829874975 -4.2829874975
6742 1 1.4276624992 -4.2829874975 -4.2829874975
6744 1 4.2829874975 -4.2829874975 -4.2829874975
7585 1 5.7106499967 -2.8553249983 -2.8553249983
7617 1 -5.7106499967 6.3987010273e-21 -2.8553249983
6778 1 -4.2829874975 -1.4276624992 -4.2829874975
6818 1 -4.2829874975 1.4276624992 -4.2829874975
6784 1 4.2829874975 -1.4276624992 -4.2829874975
6824 1 4.2829874975 1.4276624992 -4.2829874975
7625 1 5.7106499967 6.3539596797e-21 -2.8553249983
7657 1 -5.7106499967 2.8553249983 -2.8553249983
6858 1 -4.2829874975 4.2829874975 -4.2829874975
6860 1 -1.4276624992 4.2829874975 -4.2829874975
6862 1 1.4276624992 4.2829874975 -4.2829874975
6864 1 4.2829874975 4.2829874975 -4.2829874975
7665 1 5.7106499967 2.8553249983 -2.8553249983
7699 1 -2.8553249983 5.7106499967 -2.8553249983
7701 1 6.4971319919e-21 5.7106499967 -2.8553249983
7703 1 2.8553249983 5.7106499967 -2.8553249983
8339 1 -2.8553249983 -5.7106499967 -3.5526856501e-15
8300 1 -1.4276624992 -7.1383124958 1.4276624992
8341 1 6.2613795067e-21 -5.7106499967 -3.5526855602e-15
8377 1 -5.7106499967 -2.8553249983 -3.5526860025e-15
7538 1 -4.2829874975 -4.2829874975 -1.4276624992
8338 1 -4.2829874975 -4.2829874975 1.4276624992
7540 1 -1.4276624992 -4.2829874975 -1.4276624992
7542 1 1.4276624992 -4.2829874975 -1.4276624992
8342 1 1.4276624992 -4.2829874975 1.4276624992
8381 1 6.2723927615e-21 -2.8553249983 -3.5526855162e-15
7544 1 4.2829874975 -4.2829874975 -1.4276624992
8383 1 2.8553249983 -2.8553249983 -3.5526812871e-15
7576 1 -7.1383124958 -1.4276624992 -1.4276624992
8417 1 -5.7106499967 6.2131965171e-21 -3.5526855713e-15
7618 1 -4.2829874975 1.4276624992 -1.4276624992
8378 1 -4.2829874975 -1.4276624992 1.4276624992
8419 1 -2.8553249983 6.3453555744e-21 -3.5526857475e-15
8382 1 1.4276624992 -1.4276624992 1.4276624992
8420 1 -1.4276624992 1.4276624992 1.4276624992
8422 1 1.4276624992 1.4276624992 1.4276624992
7584 1 4.2829874975 -1.4276624992 -1.4276624992
7624 1 4.2829874975 1.4276624992 -1.4276624992
8423 1 2.8553249983 6.4389682401e-21 -3.5526812155e-15
7658 1 -4.2829874975 4.2829874975 -1.4276624992
8459 1 -2.8553249983 2.8553249983 -3.5526814082e-15
7660 1 -1.4276624992 4.2829874975 -1.4276624992
7662 1 1.4276624992 4.2829874975 -1.4276624992
8461 1 6.28615933e-21 2.8553249983 -3.5526814578e-15
7664 1 4.2829874975 4.2829874975 -1.4276624992
8463 1 2.8553249983 2.8553249983 -3.5526918984e-15
9139 1 -2.8553249983 -5.7106499967 2.8553249983
9141 1 6.1629485421e-21 -5.7106499967 2.8553249983
9177 1 -5.7106499967 -2.8553249983 2.8553249983
9138 1 -4.2829874975 -4.2829874975 4.2829874975
9140 1 -1.4276624992 -4.2829874975 4.2829874975
9181 1 6.0418027395e-21 -2.8553249983 2.8553249983
9178 1 -4.2829874975 -1.4276624992 4.2829874975
9219 1 -2.8553249983 5.8938121284e-21 2.8553249983
9180 1 -1.4276624992 -1.4276624992 4.2829874975
9221 1 6.187040037e-21 6.2517429088e-21 2.8553249983
9979 1 -2.8553249983 -2.8553249983 5.7106499967
