ITEM: TIMESTEP
0
ITEM: NUMBER OF ATOMS
60
ITEM: BOX BOUNDS pp pp pp
-24.0513 24.0513
-24.0513 24.0513
-24.0513 24.0513
ITEM: ATOMS id type x y z
685 1 -3.4359 -3.4359 -3.4359
574 1 -1.71795 -5.15385 -5.15385
586 1 -5.15385 -1.71795 -5.15385
588 4 -1.71795 -1.71795 -5.15385
670 3 -5.15385 -5.15385 -1.71795
672 1 -1.71795 -5.15385 -1.71795
684 1 -5.15385 -1.71795 -1.71795
769 3 -3.4359 -6.8718 0.0
781 4 -6.8718 -3.4359 0.0
768 4 -5.15385 -5.15385 1.71795
770 2 -1.71795 -5.15385 1.71795
782 2 -5.15385 -1.71795 1.71795
881 3 -3.4359 -3.4359 3.4359
882 4 -1.71795 -1.71795 5.15385
1875 4 -3.4359 0.0 -6.8718
1971 3 -6.8718 0.0 -3.4359
1874 2 -5.15385 1.71795 -5.15385
1876 4 -1.71795 1.71795 -5.15385
1987 2 -3.4359 3.4359 -3.4359
1972 1 -5.15385 1.71795 -1.71795
1988 2 -1.71795 5.15385 -1.71795
2069 3 -6.8718 0.0 0.0
2070 4 -5.15385 1.71795 1.71795
2072 3 -1.71795 1.71795 1.71795
2085 4 -3.4359 3.4359 0.0
2169 3 -3.4359 0.0 3.4359
3319 4 0.0 -3.4359 -6.8718
3403 1 0.0 -6.8718 -3.4359
3306 4 1.71795 -5.15385 -5.15385
3419 4 3.4359 -3.4359 -3.4359
3320 3 1.71795 -1.71795 -5.15385
3322 3 5.15385 -1.71795 -5.15385
3404 4 1.71795 -5.15385 -1.71795
3406 1 5.15385 -5.15385 -1.71795
3420 1 5.15385 -1.71795 -1.71795
3501 3 0.0 -6.8718 0.0
3503 2 3.4359 -6.8718 0.0
3502 3 1.71795 -5.15385 1.71795
3504 4 5.15385 -5.15385 1.71795
3519 4 6.8718 -3.4359 0.0
3518 3 5.15385 -1.71795 1.71795
3613 3 0.0 -3.4359 3.4359
3615 4 3.4359 -3.4359 3.4359
3614 1 1.71795 -1.71795 5.15385
4607 1 0.0 0.0 -6.8718
4609 1 3.4359 0.0 -6.8718
4608 2 1.71795 1.71795 -5.15385
4610 4 5.15385 1.71795 -5.15385
4709 2 6.8718 0.0 -3.4359
4719 1 0.0 3.4359 -3.4359
4721 1 3.4359 3.4359 -3.4359
4708 3 5.15385 1.71795 -1.71795
4720 3 1.71795 5.15385 -1.71795
4804 4 1.71795 1.71795 1.71795
4806 3 5.15385 1.71795 1.71795
4807 4 6.8718 0.0 0.0
4817 1 0.0 3.4359 0.0
4819 1 3.4359 3.4359 0.0
4901 2 0.0 0.0 3.4359
4903 1 3.4359 0.0 3.4359
