ITEM: TIMESTEP
0
ITEM: NUMBER OF ATOMS
20
ITEM: BOX BOUNDS pp pp pp
-28.5532499834 28.5532499834
-28.5532499834 28.5532499834
-28.5532499834 28.5532499834
ITEM: ATOMS id type x y z
7579 1 -2.8553249983 -2.8553249983 -2.8553249983
7581 1 6.4537673012e-21 -2.8553249983 -2.8553249983
7619 1 -2.8553249983 6.4647805559e-21 -2.8553249983
6780 1 -1.4276624992 -1.4276624992 -4.2829874975
7621 1 6.2290280708e-21 6.268262791e-21 -2.8553249983
8379 1 -2.8553249983 -2.8553249983 -3.5526860025e-15
7540 1 -1.4276624992 -4.2829874975 -1.4276624992
8381 1 6.2723927615e-21 -2.8553249983 -3.5526855162e-15
7578 1 -4.2829874975 -1.4276624992 -1.4276624992
8419 1 -2.8553249983 6.3453555744e-21 -3.5526857475e-15
7582 1 1.4276624992 -1.4276624992 -1.4276624992
7620 1 -1.4276624992 1.4276624992 -1.4276624992
7622 1 1.4276624992 1.4276624992 -1.4276624992
8380 1 -1.4276624992 -1.4276624992 1.4276624992
8382 1 1.4276624992 -1.4276624992 1.4276624992
8420 1 -1.4276624992 1.4276624992 1.4276624992
8422 1 1.4276624992 1.4276624992 1.4276624992
8423 1 2.8553249983 6.4389682401e-21 -3.5526812155e-15
8461 1 6.28615933e-21 2.8553249983 -3.5526814578e-15
9221 1 6.187040037e-21 6.2517429088e-21 2.8553249983
