ITEM: TIMESTEP
0
ITEM: NUMBER OF ATOMS
37
ITEM: BOX BOUNDS pp pp pp
-8.5 8.5
-8.5 8.5
-8.5 8.5
ITEM: ATOMS id type x y z
168 1 -3.4 -3.4 -1.7
169 1 -3.4 -3.4 1.7
172 1 -3.4 -1.7 -3.4
173 1 -3.4 -1.7 0.0
174 1 -3.4 -1.7 3.4
178 1 -3.4 0.0 -1.7
179 1 -3.4 0.0 1.7
182 1 -3.4 1.7 -3.4
183 1 -3.4 1.7 0.0
184 1 -3.4 1.7 3.4
188 1 -3.4 3.4 -1.7
189 1 -3.4 3.4 1.7
217 1 -1.7 -3.4 -3.4
218 1 -1.7 -3.4 0.0
219 1 -1.7 -3.4 3.4
227 1 -1.7 0.0 -3.4
229 1 -1.7 0.0 3.4
237 1 -1.7 3.4 -3.4
238 1 -1.7 3.4 0.0
239 1 -1.7 3.4 3.4
268 1 0.0 -3.4 -1.7
269 1 0.0 -3.4 1.7
272 1 0.0 -1.7 -3.4
274 1 0.0 -1.7 3.4
282 1 0.0 1.7 -3.4
284 1 0.0 1.7 3.4
288 1 0.0 3.4 -1.7
289 1 0.0 3.4 1.7
318 1 1.7 -3.4 0.0
323 1 1.7 -1.7 -1.7
324 1 1.7 -1.7 1.7
327 1 1.7 0.0 -3.4
328 1 1.7 0.0 0.0
329 1 1.7 0.0 3.4
333 1 1.7 1.7 -1.7
334 1 1.7 1.7 1.7
338 1 1.7 3.4 0.0
