ITEM: TIMESTEP
0
ITEM: NUMBER OF ATOMS
28
ITEM: BOX BOUNDS pp pp pp
-24.0513 24.0513
-24.0513 24.0513
-24.0513 24.0513
ITEM: ATOMS id type x y z
685 1 -3.4359 -3.4359 -3.4359
588 4 -1.71795 -1.71795 -5.15385
670 3 -5.15385 -5.15385 -1.71795
672 1 -1.71795 -5.15385 -1.71795
684 1 -5.15385 -1.71795 -1.71795
769 3 -3.4359 -6.8718 0.0
781 4 -6.8718 -3.4359 0.0
768 4 -5.15385 -5.15385 1.71795
770 2 -1.71795 -5.15385 1.71795
782 2 -5.15385 -1.71795 1.71795
881 3 -3.4359 -3.4359 3.4359
882 4 -1.71795 -1.71795 5.15385
1973 4 -3.4359 0.0 -3.4359
1974 4 -1.71795 1.71795 -1.71795
2071 4 -3.4359 0.0 0.0
2072 3 -1.71795 1.71795 1.71795
2169 3 -3.4359 0.0 3.4359
3417 2 0.0 -3.4359 -3.4359
3418 2 1.71795 -1.71795 -1.71795
3515 3 0.0 -3.4359 0.0
3516 1 1.71795 -1.71795 1.71795
3613 3 0.0 -3.4359 3.4359
4705 3 0.0 0.0 -3.4359
4706 4 1.71795 1.71795 -1.71795
4804 4 1.71795 1.71795 1.71795
4805 4 3.4359 0.0 0.0
4817 1 0.0 3.4359 0.0
4901 2 0.0 0.0 3.4359
