ITEM: TIMESTEP
0
ITEM: NUMBER OF ATOMS
109
ITEM: BOX BOUNDS pp pp pp
-28.5532499834 28.5532499834
-28.5532499834 28.5532499834
-28.5532499834 28.5532499834
ITEM: ATOMS id type x y z
6779 1 -2.8553249983 -2.8553249983 -5.7106499967
6781 1 6.1894491864e-21 -2.8553249983 -5.7106499967
6783 1 2.8553249983 -2.8553249983 -5.7106499967
6819 1 -2.8553249983 6.3326214986e-21 -5.7106499967
5980 1 -1.4276624992 -1.4276624992 -7.1383124958
5982 1 1.4276624992 -1.4276624992 -7.1383124958
6020 1 -1.4276624992 1.4276624992 -7.1383124958
6022 1 1.4276624992 1.4276624992 -7.1383124958
6821 1 6.4930020213e-21 6.4441307032e-21 -5.7106499967
6823 1 2.8553249983 6.6981238916e-21 -5.7106499967
6859 1 -2.8553249983 2.8553249983 -5.7106499967
6861 1 6.7022538621e-21 2.8553249983 -5.7106499967
6863 1 2.8553249983 2.8553249983 -5.7106499967
7539 1 -2.8553249983 -5.7106499967 -2.8553249983
7541 1 6.4978203203e-21 -5.7106499967 -2.8553249983
7543 1 2.8553249983 -5.7106499967 -2.8553249983
7577 1 -5.7106499967 -2.8553249983 -2.8553249983
6738 1 -4.2829874975 -4.2829874975 -4.2829874975
6740 1 -1.4276624992 -4.2829874975 -4.2829874975
6742 1 1.4276624992 -4.2829874975 -4.2829874975
6744 1 4.2829874975 -4.2829874975 -4.2829874975
7585 1 5.7106499967 -2.8553249983 -2.8553249983
7617 1 -5.7106499967 6.3987010273e-21 -2.8553249983
6778 1 -4.2829874975 -1.4276624992 -4.2829874975
6818 1 -4.2829874975 1.4276624992 -4.2829874975
6784 1 4.2829874975 -1.4276624992 -4.2829874975
6824 1 4.2829874975 1.4276624992 -4.2829874975
7625 1 5.7106499967 6.3539596797e-21 -2.8553249983
7657 1 -5.7106499967 2.8553249983 -2.8553249983
6858 1 -4.2829874975 4.2829874975 -4.2829874975
6860 1 -1.4276624992 4.2829874975 -4.2829874975
6862 1 1.4276624992 4.2829874975 -4.2829874975
6864 1 4.2829874975 4.2829874975 -4.2829874975
7665 1 5.7106499967 2.8553249983 -2.8553249983
7699 1 -2.8553249983 5.7106499967 -2.8553249983
7701 1 6.4971319919e-21 5.7106499967 -2.8553249983
7703 1 2.8553249983 5.7106499967 -2.8553249983
8339 1 -2.8553249983 -5.7106499967 -3.5526856501e-15
7500 1 -1.4276624992 -7.1383124958 -1.4276624992
7502 1 1.4276624992 -7.1383124958 -1.4276624992
8300 1 -1.4276624992 -7.1383124958 1.4276624992
8302 1 1.4276624992 -7.1383124958 1.4276624992
8341 1 6.2613795067e-21 -5.7106499967 -3.5526855602e-15
8343 1 2.8553249983 -5.7106499967 -3.5526811549e-15
8377 1 -5.7106499967 -2.8553249983 -3.5526860025e-15
7538 1 -4.2829874975 -4.2829874975 -1.4276624992
8338 1 -4.2829874975 -4.2829874975 1.4276624992
7544 1 4.2829874975 -4.2829874975 -1.4276624992
8344 1 4.2829874975 -4.2829874975 1.4276624992
8385 1 5.7106499967 -2.8553249983 -3.5526868071e-15
7576 1 -7.1383124958 -1.4276624992 -1.4276624992
7616 1 -7.1383124958 1.4276624992 -1.4276624992
8376 1 -7.1383124958 -1.4276624992 1.4276624992
8416 1 -7.1383124958 1.4276624992 1.4276624992
8417 1 -5.7106499967 6.2131965171e-21 -3.5526855713e-15
7586 1 7.1383124958 -1.4276624992 -1.4276624992
7626 1 7.1383124958 1.4276624992 -1.4276624992
8386 1 7.1383124958 -1.4276624992 1.4276624992
8425 1 5.7106499967 5.951631716e-21 -3.5526865046e-15
8426 1 7.1383124958 1.4276624992 1.4276624992
8457 1 -5.7106499967 2.8553249983 -3.5526811439e-15
7658 1 -4.2829874975 4.2829874975 -1.4276624992
8458 1 -4.2829874975 4.2829874975 1.4276624992
8460 1 -1.4276624992 4.2829874975 1.4276624992
8462 1 1.4276624992 4.2829874975 1.4276624992
7664 1 4.2829874975 4.2829874975 -1.4276624992
8464 1 4.2829874975 4.2829874975 1.4276624992
8465 1 5.7106499967 2.8553249983 -3.5526852161e-15
8499 1 -2.8553249983 5.7106499967 -3.5526868512e-15
7700 1 -1.4276624992 7.1383124958 -1.4276624992
7702 1 1.4276624992 7.1383124958 -1.4276624992
8501 1 6.2600028499e-21 5.7106499967 -3.5526865267e-15
8503 1 2.8553249983 5.7106499967 -3.5526854143e-15
9139 1 -2.8553249983 -5.7106499967 2.8553249983
9141 1 6.1629485421e-21 -5.7106499967 2.8553249983
9143 1 2.8553249983 -5.7106499967 2.8553249983
9177 1 -5.7106499967 -2.8553249983 2.8553249983
9138 1 -4.2829874975 -4.2829874975 4.2829874975
9140 1 -1.4276624992 -4.2829874975 4.2829874975
9142 1 1.4276624992 -4.2829874975 4.2829874975
9144 1 4.2829874975 -4.2829874975 4.2829874975
9185 1 5.7106499967 -2.8553249983 2.8553249983
9217 1 -5.7106499967 6.0700242049e-21 2.8553249983
9178 1 -4.2829874975 -1.4276624992 4.2829874975
9218 1 -4.2829874975 1.4276624992 4.2829874975
9182 1 1.4276624992 -1.4276624992 4.2829874975
9220 1 -1.4276624992 1.4276624992 4.2829874975
9222 1 1.4276624992 1.4276624992 4.2829874975
9184 1 4.2829874975 -1.4276624992 4.2829874975
9224 1 4.2829874975 1.4276624992 4.2829874975
9225 1 5.7106499967 6.4802679455e-21 2.8553249983
9257 1 -5.7106499967 2.8553249983 2.8553249983
9258 1 -4.2829874975 4.2829874975 4.2829874975
9260 1 -1.4276624992 4.2829874975 4.2829874975
9261 1 6.4183183873e-21 2.8553249983 2.8553249983
9262 1 1.4276624992 4.2829874975 4.2829874975
9264 1 4.2829874975 4.2829874975 4.2829874975
9265 1 5.7106499967 2.8553249983 2.8553249983
9299 1 -2.8553249983 5.7106499967 2.8553249983
9303 1 2.8553249983 5.7106499967 2.8553249983
9979 1 -2.8553249983 -2.8553249983 5.7106499967
9981 1 6.9266489283e-21 -2.8553249983 5.7106499967
9983 1 2.8553249983 -2.8553249983 5.7106499967
10019 1 -2.8553249983 6.9156356735e-21 5.7106499967
9980 1 -1.4276624992 -1.4276624992 7.1383124958
10021 1 6.5460033099e-21 6.5349900552e-21 5.7106499967
10023 1 2.8553249983 6.3147249596e-21 5.7106499967
10059 1 -2.8553249983 2.8553249983 5.7106499967
10063 1 2.8553249983 2.8553249983 5.7106499967
