ITEM: TIMESTEP
0
ITEM: NUMBER OF ATOMS
14
ITEM: BOX BOUNDS pp pp pp
-24.0513 24.0513
-24.0513 24.0513
-24.0513 24.0513
ITEM: ATOMS id type x y z
686 1 -1.71795 -1.71795 -1.71795
784 4 -1.71795 -1.71795 1.71795
1974 4 -1.71795 1.71795 -1.71795
2071 4 -3.4359 0.0 0.0
2072 3 -1.71795 1.71795 1.71795
3418 2 1.71795 -1.71795 -1.71795
3515 3 0.0 -3.4359 0.0
3516 1 1.71795 -1.71795 1.71795
4705 3 0.0 0.0 -3.4359
4706 4 1.71795 1.71795 -1.71795
4804 4 1.71795 1.71795 1.71795
4805 4 3.4359 0.0 0.0
4817 1 0.0 3.4359 0.0
4901 2 0.0 0.0 3.4359
