ITEM: TIMESTEP
0
ITEM: NUMBER OF ATOMS
34
ITEM: BOX BOUNDS pp pp pp
-28.5532499834 28.5532499834
-28.5532499834 28.5532499834
-28.5532499834 28.5532499834
ITEM: ATOMS id type x y z
6779 1 -2.8553249983 -2.8553249983 -5.7106499967
6781 1 6.1894491864e-21 -2.8553249983 -5.7106499967
6819 1 -2.8553249983 6.3326214986e-21 -5.7106499967
5980 1 -1.4276624992 -1.4276624992 -7.1383124958
6821 1 6.4930020213e-21 6.4441307032e-21 -5.7106499967
7539 1 -2.8553249983 -5.7106499967 -2.8553249983
7541 1 6.4978203203e-21 -5.7106499967 -2.8553249983
7577 1 -5.7106499967 -2.8553249983 -2.8553249983
6738 1 -4.2829874975 -4.2829874975 -4.2829874975
6740 1 -1.4276624992 -4.2829874975 -4.2829874975
6742 1 1.4276624992 -4.2829874975 -4.2829874975
7583 1 2.8553249983 -2.8553249983 -2.8553249983
6778 1 -4.2829874975 -1.4276624992 -4.2829874975
7619 1 -2.8553249983 6.4647805559e-21 -2.8553249983
6782 1 1.4276624992 -1.4276624992 -4.2829874975
6820 1 -1.4276624992 1.4276624992 -4.2829874975
7621 1 6.2290280708e-21 6.268262791e-21 -2.8553249983
7538 1 -4.2829874975 -4.2829874975 -1.4276624992
8379 1 -2.8553249983 -2.8553249983 -3.5526860025e-15
7540 1 -1.4276624992 -4.2829874975 -1.4276624992
7542 1 1.4276624992 -4.2829874975 -1.4276624992
8381 1 6.2723927615e-21 -2.8553249983 -3.5526855162e-15
7578 1 -4.2829874975 -1.4276624992 -1.4276624992
8419 1 -2.8553249983 6.3453555744e-21 -3.5526857475e-15
7582 1 1.4276624992 -1.4276624992 -1.4276624992
7620 1 -1.4276624992 1.4276624992 -1.4276624992
7622 1 1.4276624992 1.4276624992 -1.4276624992
8380 1 -1.4276624992 -1.4276624992 1.4276624992
8382 1 1.4276624992 -1.4276624992 1.4276624992
8420 1 -1.4276624992 1.4276624992 1.4276624992
8422 1 1.4276624992 1.4276624992 1.4276624992
8423 1 2.8553249983 6.4389682401e-21 -3.5526812155e-15
8461 1 6.28615933e-21 2.8553249983 -3.5526814578e-15
9221 1 6.187040037e-21 6.2517429088e-21 2.8553249983
