ITEM: TIMESTEP
0
ITEM: NUMBER OF ATOMS
500
ITEM: BOX BOUNDS pp pp pp
-8.5 8.5
-8.5 8.5
-8.5 8.5
ITEM: ATOMS id type x y z
1 1 -8.500000 -8.500000 -8.500000
2 1 -8.500000 -8.500000 -5.100000
3 1 -8.500000 -8.500000 -1.700000
4 1 -8.500000 -8.500000 1.700000
5 1 -8.500000 -8.500000 5.100000
6 1 -8.500000 -6.800000 -6.800000
7 1 -8.500000 -6.800000 -3.400000
8 1 -8.500000 -6.800000 0.000000
9 1 -8.500000 -6.800000 3.400000
10 1 -8.500000 -6.800000 6.800000
11 1 -8.500000 -5.100000 -8.500000
12 1 -8.500000 -5.100000 -5.100000
13 1 -8.500000 -5.100000 -1.700000
14 1 -8.500000 -5.100000 1.700000
15 1 -8.500000 -5.100000 5.100000
16 1 -8.500000 -3.400000 -6.800000
17 1 -8.500000 -3.400000 -3.400000
18 1 -8.500000 -3.400000 0.000000
19 1 -8.500000 -3.400000 3.400000
20 1 -8.500000 -3.400000 6.800000
21 1 -8.500000 -1.700000 -8.500000
22 1 -8.500000 -1.700000 -5.100000
23 1 -8.500000 -1.700000 -1.700000
24 1 -8.500000 -1.700000 1.700000
25 1 -8.500000 -1.700000 5.100000
26 1 -8.500000 0.000000 -6.800000
27 1 -8.500000 0.000000 -3.400000
28 1 -8.500000 0.000000 0.000000
29 1 -8.500000 0.000000 3.400000
30 1 -8.500000 0.000000 6.800000
31 1 -8.500000 1.700000 -8.500000
32 1 -8.500000 1.700000 -5.100000
33 1 -8.500000 1.700000 -1.700000
34 1 -8.500000 1.700000 1.700000
35 1 -8.500000 1.700000 5.100000
36 1 -8.500000 3.400000 -6.800000
37 1 -8.500000 3.400000 -3.400000
38 1 -8.500000 3.400000 0.000000
39 1 -8.500000 3.400000 3.400000
40 1 -8.500000 3.400000 6.800000
41 1 -8.500000 5.100000 -8.500000
42 1 -8.500000 5.100000 -5.100000
43 1 -8.500000 5.100000 -1.700000
44 1 -8.500000 5.100000 1.700000
45 1 -8.500000 5.100000 5.100000
46 1 -8.500000 6.800000 -6.800000
47 1 -8.500000 6.800000 -3.400000
48 1 -8.500000 6.800000 0.000000
49 1 -8.500000 6.800000 3.400000
50 1 -8.500000 6.800000 6.800000
51 1 -6.800000 -8.500000 -6.800000
52 1 -6.800000 -8.500000 -3.400000
53 1 -6.800000 -8.500000 0.000000
54 1 -6.800000 -8.500000 3.400000
55 1 -6.800000 -8.500000 6.800000
56 1 -6.800000 -6.800000 -8.500000
57 1 -6.800000 -6.800000 -5.100000
58 1 -6.800000 -6.800000 -1.700000
59 1 -6.800000 -6.800000 1.700000
60 1 -6.800000 -6.800000 5.100000
61 1 -6.800000 -5.100000 -6.800000
62 1 -6.800000 -5.100000 -3.400000
63 1 -6.800000 -5.100000 0.000000
64 1 -6.800000 -5.100000 3.400000
65 1 -6.800000 -5.100000 6.800000
66 1 -6.800000 -3.400000 -8.500000
67 1 -6.800000 -3.400000 -5.100000
68 1 -6.800000 -3.400000 -1.700000
69 1 -6.800000 -3.400000 1.700000
70 1 -6.800000 -3.400000 5.100000
71 1 -6.800000 -1.700000 -6.800000
72 1 -6.800000 -1.700000 -3.400000
73 1 -6.800000 -1.700000 0.000000
74 1 -6.800000 -1.700000 3.400000
75 1 -6.800000 -1.700000 6.800000
76 1 -6.800000 0.000000 -8.500000
77 1 -6.800000 0.000000 -5.100000
78 1 -6.800000 0.000000 -1.700000
79 1 -6.800000 0.000000 1.700000
80 1 -6.800000 0.000000 5.100000
81 1 -6.800000 1.700000 -6.800000
82 1 -6.800000 1.700000 -3.400000
83 1 -6.800000 1.700000 0.000000
84 1 -6.800000 1.700000 3.400000
85 1 -6.800000 1.700000 6.800000
86 1 -6.800000 3.400000 -8.500000
87 1 -6.800000 3.400000 -5.100000
88 1 -6.800000 3.400000 -1.700000
89 1 -6.800000 3.400000 1.700000
90 1 -6.800000 3.400000 5.100000
91 1 -6.800000 5.100000 -6.800000
92 1 -6.800000 5.100000 -3.400000
93 1 -6.800000 5.100000 0.000000
94 1 -6.800000 5.100000 3.400000
95 1 -6.800000 5.100000 6.800000
96 1 -6.800000 6.800000 -8.500000
97 1 -6.800000 6.800000 -5.100000
98 1 -6.800000 6.800000 -1.700000
99 1 -6.800000 6.800000 1.700000
100 1 -6.800000 6.800000 5.100000
101 1 -5.100000 -8.500000 -8.500000
102 1 -5.100000 -8.500000 -5.100000
103 1 -5.100000 -8.500000 -1.700000
104 1 -5.100000 -8.500000 1.700000
105 1 -5.100000 -8.500000 5.100000
106 1 -5.100000 -6.800000 -6.800000
107 1 -5.100000 -6.800000 -3.400000
108 1 -5.100000 -6.800000 0.000000
109 1 -5.100000 -6.800000 3.400000
110 1 -5.100000 -6.800000 6.800000
111 1 -5.100000 -5.100000 -8.500000
112 1 -5.100000 -5.100000 -5.100000
113 1 -5.100000 -5.100000 -1.700000
114 1 -5.100000 -5.100000 1.700000
115 1 -5.100000 -5.100000 5.100000
116 1 -5.100000 -3.400000 -6.800000
117 1 -5.100000 -3.400000 -3.400000
118 1 -5.100000 -3.400000 0.000000
119 1 -5.100000 -3.400000 3.400000
120 1 -5.100000 -3.400000 6.800000
121 1 -5.100000 -1.700000 -8.500000
122 1 -5.100000 -1.700000 -5.100000
123 1 -5.100000 -1.700000 -1.700000
124 1 -5.100000 -1.700000 1.700000
125 1 -5.100000 -1.700000 5.100000
126 1 -5.100000 0.000000 -6.800000
127 1 -5.100000 0.000000 -3.400000
128 1 -5.100000 0.000000 0.000000
129 1 -5.100000 0.000000 3.400000
130 1 -5.100000 0.000000 6.800000
131 1 -5.100000 1.700000 -8.500000
132 1 -5.100000 1.700000 -5.100000
133 1 -5.100000 1.700000 -1.700000
134 1 -5.100000 1.700000 1.700000
135 1 -5.100000 1.700000 5.100000
136 1 -5.100000 3.400000 -6.800000
137 1 -5.100000 3.400000 -3.400000
138 1 -5.100000 3.400000 0.000000
139 1 -5.100000 3.400000 3.400000
140 1 -5.100000 3.400000 6.800000
141 1 -5.100000 5.100000 -8.500000
142 1 -5.100000 5.100000 -5.100000
143 1 -5.100000 5.100000 -1.700000
144 1 -5.100000 5.100000 1.700000
145 1 -5.100000 5.100000 5.100000
146 1 -5.100000 6.800000 -6.800000
147 1 -5.100000 6.800000 -3.400000
148 1 -5.100000 6.800000 0.000000
149 1 -5.100000 6.800000 3.400000
150 1 -5.100000 6.800000 6.800000
151 1 -3.400000 -8.500000 -6.800000
152 1 -3.400000 -8.500000 -3.400000
153 1 -3.400000 -8.500000 0.000000
154 1 -3.400000 -8.500000 3.400000
155 1 -3.400000 -8.500000 6.800000
156 1 -3.400000 -6.800000 -8.500000
157 1 -3.400000 -6.800000 -5.100000
158 1 -3.400000 -6.800000 -1.700000
159 1 -3.400000 -6.800000 1.700000
160 1 -3.400000 -6.800000 5.100000
161 1 -3.400000 -5.100000 -6.800000
162 1 -3.400000 -5.100000 -3.400000
163 1 -3.400000 -5.100000 0.000000
164 1 -3.400000 -5.100000 3.400000
165 1 -3.400000 -5.100000 6.800000
166 1 -3.400000 -3.400000 -8.500000
167 1 -3.400000 -3.400000 -5.100000
168 1 -3.400000 -3.400000 -1.700000
169 1 -3.400000 -3.400000 1.700000
170 1 -3.400000 -3.400000 5.100000
171 1 -3.400000 -1.700000 -6.800000
172 1 -3.400000 -1.700000 -3.400000
173 1 -3.400000 -1.700000 0.000000
174 1 -3.400000 -1.700000 3.400000
175 1 -3.400000 -1.700000 6.800000
176 1 -3.400000 0.000000 -8.500000
177 1 -3.400000 0.000000 -5.100000
178 1 -3.400000 0.000000 -1.700000
179 1 -3.400000 0.000000 1.700000
180 1 -3.400000 0.000000 5.100000
181 1 -3.400000 1.700000 -6.800000
182 1 -3.400000 1.700000 -3.400000
183 1 -3.400000 1.700000 0.000000
184 1 -3.400000 1.700000 3.400000
185 1 -3.400000 1.700000 6.800000
186 1 -3.400000 3.400000 -8.500000
187 1 -3.400000 3.400000 -5.100000
188 1 -3.400000 3.400000 -1.700000
189 1 -3.400000 3.400000 1.700000
190 1 -3.400000 3.400000 5.100000
191 1 -3.400000 5.100000 -6.800000
192 1 -3.400000 5.100000 -3.400000
193 1 -3.400000 5.100000 0.000000
194 1 -3.400000 5.100000 3.400000
195 1 -3.400000 5.100000 6.800000
196 1 -3.400000 6.800000 -8.500000
197 1 -3.400000 6.800000 -5.100000
198 1 -3.400000 6.800000 -1.700000
199 1 -3.400000 6.800000 1.700000
200 1 -3.400000 6.800000 5.100000
201 1 -1.700000 -8.500000 -8.500000
202 1 -1.700000 -8.500000 -5.100000
203 1 -1.700000 -8.500000 -1.700000
204 1 -1.700000 -8.500000 1.700000
205 1 -1.700000 -8.500000 5.100000
206 1 -1.700000 -6.800000 -6.800000
207 1 -1.700000 -6.800000 -3.400000
208 1 -1.700000 -6.800000 0.000000
209 1 -1.700000 -6.800000 3.400000
210 1 -1.700000 -6.800000 6.800000
211 1 -1.700000 -5.100000 -8.500000
212 1 -1.700000 -5.100000 -5.100000
213 1 -1.700000 -5.100000 -1.700000
214 1 -1.700000 -5.100000 1.700000
215 1 -1.700000 -5.100000 5.100000
216 1 -1.700000 -3.400000 -6.800000
217 1 -1.700000 -3.400000 -3.400000
218 1 -1.700000 -3.400000 0.000000
219 1 -1.700000 -3.400000 3.400000
220 1 -1.700000 -3.400000 6.800000
221 1 -1.700000 -1.700000 -8.500000
222 1 -1.700000 -1.700000 -5.100000
223 1 -1.700000 -1.700000 -1.700000
224 1 -1.700000 -1.700000 1.700000
225 1 -1.700000 -1.700000 5.100000
226 1 -1.700000 0.000000 -6.800000
227 1 -1.700000 0.000000 -3.400000
228 1 -1.700000 0.000000 0.000000
229 1 -1.700000 0.000000 3.400000
230 1 -1.700000 0.000000 6.800000
231 1 -1.700000 1.700000 -8.500000
232 1 -1.700000 1.700000 -5.100000
233 1 -1.700000 1.700000 -1.700000
234 1 -1.700000 1.700000 1.700000
235 1 -1.700000 1.700000 5.100000
236 1 -1.700000 3.400000 -6.800000
237 1 -1.700000 3.400000 -3.400000
238 1 -1.700000 3.400000 0.000000
239 1 -1.700000 3.400000 3.400000
240 1 -1.700000 3.400000 6.800000
241 1 -1.700000 5.100000 -8.500000
242 1 -1.700000 5.100000 -5.100000
243 1 -1.700000 5.100000 -1.700000
244 1 -1.700000 5.100000 1.700000
245 1 -1.700000 5.100000 5.100000
246 1 -1.700000 6.800000 -6.800000
247 1 -1.700000 6.800000 -3.400000
248 1 -1.700000 6.800000 0.000000
249 1 -1.700000 6.800000 3.400000
250 1 -1.700000 6.800000 6.800000
251 1 0.000000 -8.500000 -6.800000
252 1 0.000000 -8.500000 -3.400000
253 1 0.000000 -8.500000 0.000000
254 1 0.000000 -8.500000 3.400000
255 1 0.000000 -8.500000 6.800000
256 1 0.000000 -6.800000 -8.500000
257 1 0.000000 -6.800000 -5.100000
258 1 0.000000 -6.800000 -1.700000
259 1 0.000000 -6.800000 1.700000
260 1 0.000000 -6.800000 5.100000
261 1 0.000000 -5.100000 -6.800000
262 1 0.000000 -5.100000 -3.400000
263 1 0.000000 -5.100000 0.000000
264 1 0.000000 -5.100000 3.400000
265 1 0.000000 -5.100000 6.800000
266 1 0.000000 -3.400000 -8.500000
267 1 0.000000 -3.400000 -5.100000
268 1 0.000000 -3.400000 -1.700000
269 1 0.000000 -3.400000 1.700000
270 1 0.000000 -3.400000 5.100000
271 1 0.000000 -1.700000 -6.800000
272 1 0.000000 -1.700000 -3.400000
273 1 0.000000 -1.700000 0.000000
274 1 0.000000 -1.700000 3.400000
275 1 0.000000 -1.700000 6.800000
276 1 0.000000 0.000000 -8.500000
277 1 0.000000 0.000000 -5.100000
278 1 0.000000 0.000000 -1.700000
279 1 0.000000 0.000000 1.700000
280 1 0.000000 0.000000 5.100000
281 1 0.000000 1.700000 -6.800000
282 1 0.000000 1.700000 -3.400000
283 1 0.000000 1.700000 0.000000
284 1 0.000000 1.700000 3.400000
285 1 0.000000 1.700000 6.800000
286 1 0.000000 3.400000 -8.500000
287 1 0.000000 3.400000 -5.100000
288 1 0.000000 3.400000 -1.700000
289 1 0.000000 3.400000 1.700000
290 1 0.000000 3.400000 5.100000
291 1 0.000000 5.100000 -6.800000
292 1 0.000000 5.100000 -3.400000
293 1 0.000000 5.100000 0.000000
294 1 0.000000 5.100000 3.400000
295 1 0.000000 5.100000 6.800000
296 1 0.000000 6.800000 -8.500000
297 1 0.000000 6.800000 -5.100000
298 1 0.000000 6.800000 -1.700000
299 1 0.000000 6.800000 1.700000
300 1 0.000000 6.800000 5.100000
301 1 1.700000 -8.500000 -8.500000
302 1 1.700000 -8.500000 -5.100000
303 1 1.700000 -8.500000 -1.700000
304 1 1.700000 -8.500000 1.700000
305 1 1.700000 -8.500000 5.100000
306 1 1.700000 -6.800000 -6.800000
307 1 1.700000 -6.800000 -3.400000
308 1 1.700000 -6.800000 0.000000
309 1 1.700000 -6.800000 3.400000
310 1 1.700000 -6.800000 6.800000
311 1 1.700000 -5.100000 -8.500000
312 1 1.700000 -5.100000 -5.100000
313 1 1.700000 -5.100000 -1.700000
314 1 1.700000 -5.100000 1.700000
315 1 1.700000 -5.100000 5.100000
316 1 1.700000 -3.400000 -6.800000
317 1 1.700000 -3.400000 -3.400000
318 1 1.700000 -3.400000 0.000000
319 1 1.700000 -3.400000 3.400000
320 1 1.700000 -3.400000 6.800000
321 1 1.700000 -1.700000 -8.500000
322 1 1.700000 -1.700000 -5.100000
323 1 1.700000 -1.700000 -1.700000
324 1 1.700000 -1.700000 1.700000
325 1 1.700000 -1.700000 5.100000
326 1 1.700000 0.000000 -6.800000
327 1 1.700000 0.000000 -3.400000
328 1 1.700000 0.000000 0.000000
329 1 1.700000 0.000000 3.400000
330 1 1.700000 0.000000 6.800000
331 1 1.700000 1.700000 -8.500000
332 1 1.700000 1.700000 -5.100000
333 1 1.700000 1.700000 -1.700000
334 1 1.700000 1.700000 1.700000
335 1 1.700000 1.700000 5.100000
336 1 1.700000 3.400000 -6.800000
337 1 1.700000 3.400000 -3.400000
338 1 1.700000 3.400000 0.000000
339 1 1.700000 3.400000 3.400000
340 1 1.700000 3.400000 6.800000
341 1 1.700000 5.100000 -8.500000
342 1 1.700000 5.100000 -5.100000
343 1 1.700000 5.100000 -1.700000
344 1 1.700000 5.100000 1.700000
345 1 1.700000 5.100000 5.100000
346 1 1.700000 6.800000 -6.800000
347 1 1.700000 6.800000 -3.400000
348 1 1.700000 6.800000 0.000000
349 1 1.700000 6.800000 3.400000
350 1 1.700000 6.800000 6.800000
351 1 3.400000 -8.500000 -6.800000
352 1 3.400000 -8.500000 -3.400000
353 1 3.400000 -8.500000 0.000000
354 1 3.400000 -8.500000 3.400000
355 1 3.400000 -8.500000 6.800000
356 1 3.400000 -6.800000 -8.500000
357 1 3.400000 -6.800000 -5.100000
358 1 3.400000 -6.800000 -1.700000
359 1 3.400000 -6.800000 1.700000
360 1 3.400000 -6.800000 5.100000
361 1 3.400000 -5.100000 -6.800000
362 1 3.400000 -5.100000 -3.400000
363 1 3.400000 -5.100000 0.000000
364 1 3.400000 -5.100000 3.400000
365 1 3.400000 -5.100000 6.800000
366 1 3.400000 -3.400000 -8.500000
367 1 3.400000 -3.400000 -5.100000
368 1 3.400000 -3.400000 -1.700000
369 1 3.400000 -3.400000 1.700000
370 1 3.400000 -3.400000 5.100000
371 1 3.400000 -1.700000 -6.800000
372 1 3.400000 -1.700000 -3.400000
373 1 3.400000 -1.700000 0.000000
374 1 3.400000 -1.700000 3.400000
375 1 3.400000 -1.700000 6.800000
376 1 3.400000 0.000000 -8.500000
377 1 3.400000 0.000000 -5.100000
378 1 3.400000 0.000000 -1.700000
379 1 3.400000 0.000000 1.700000
380 1 3.400000 0.000000 5.100000
381 1 3.400000 1.700000 -6.800000
382 1 3.400000 1.700000 -3.400000
383 1 3.400000 1.700000 0.000000
384 1 3.400000 1.700000 3.400000
385 1 3.400000 1.700000 6.800000
386 1 3.400000 3.400000 -8.500000
387 1 3.400000 3.400000 -5.100000
388 1 3.400000 3.400000 -1.700000
389 1 3.400000 3.400000 1.700000
390 1 3.400000 3.400000 5.100000
391 1 3.400000 5.100000 -6.800000
392 1 3.400000 5.100000 -3.400000
393 1 3.400000 5.100000 0.000000
394 1 3.400000 5.100000 3.400000
395 1 3.400000 5.100000 6.800000
396 1 3.400000 6.800000 -8.500000
397 1 3.400000 6.800000 -5.100000
398 1 3.400000 6.800000 -1.700000
399 1 3.400000 6.800000 1.700000
400 1 3.400000 6.800000 5.100000
401 1 5.100000 -8.500000 -8.500000
402 1 5.100000 -8.500000 -5.100000
403 1 5.100000 -8.500000 -1.700000
404 1 5.100000 -8.500000 1.700000
405 1 5.100000 -8.500000 5.100000
406 1 5.100000 -6.800000 -6.800000
407 1 5.100000 -6.800000 -3.400000
408 1 5.100000 -6.800000 0.000000
409 1 5.100000 -6.800000 3.400000
410 1 5.100000 -6.800000 6.800000
411 1 5.100000 -5.100000 -8.500000
412 1 5.100000 -5.100000 -5.100000
413 1 5.100000 -5.100000 -1.700000
414 1 5.100000 -5.100000 1.700000
415 1 5.100000 -5.100000 5.100000
416 1 5.100000 -3.400000 -6.800000
417 1 5.100000 -3.400000 -3.400000
418 1 5.100000 -3.400000 0.000000
419 1 5.100000 -3.400000 3.400000
420 1 5.100000 -3.400000 6.800000
421 1 5.100000 -1.700000 -8.500000
422 1 5.100000 -1.700000 -5.100000
423 1 5.100000 -1.700000 -1.700000
424 1 5.100000 -1.700000 1.700000
425 1 5.100000 -1.700000 5.100000
426 1 5.100000 0.000000 -6.800000
427 1 5.100000 0.000000 -3.400000
428 1 5.100000 0.000000 0.000000
429 1 5.100000 0.000000 3.400000
430 1 5.100000 0.000000 6.800000
431 1 5.100000 1.700000 -8.500000
432 1 5.100000 1.700000 -5.100000
433 1 5.100000 1.700000 -1.700000
434 1 5.100000 1.700000 1.700000
435 1 5.100000 1.700000 5.100000
436 1 5.100000 3.400000 -6.800000
437 1 5.100000 3.400000 -3.400000
438 1 5.100000 3.400000 0.000000
439 1 5.100000 3.400000 3.400000
440 1 5.100000 3.400000 6.800000
441 1 5.100000 5.100000 -8.500000
442 1 5.100000 5.100000 -5.100000
443 1 5.100000 5.100000 -1.700000
444 1 5.100000 5.100000 1.700000
445 1 5.100000 5.100000 5.100000
446 1 5.100000 6.800000 -6.800000
447 1 5.100000 6.800000 -3.400000
448 1 5.100000 6.800000 0.000000
449 1 5.100000 6.800000 3.400000
450 1 5.100000 6.800000 6.800000
451 1 6.800000 -8.500000 -6.800000
452 1 6.800000 -8.500000 -3.400000
453 1 6.800000 -8.500000 0.000000
454 1 6.800000 -8.500000 3.400000
455 1 6.800000 -8.500000 6.800000
456 1 6.800000 -6.800000 -8.500000
457 1 6.800000 -6.800000 -5.100000
458 1 6.800000 -6.800000 -1.700000
459 1 6.800000 -6.800000 1.700000
460 1 6.800000 -6.800000 5.100000
461 1 6.800000 -5.100000 -6.800000
462 1 6.800000 -5.100000 -3.400000
463 1 6.800000 -5.100000 0.000000
464 1 6.800000 -5.100000 3.400000
465 1 6.800000 -5.100000 6.800000
466 1 6.800000 -3.400000 -8.500000
467 1 6.800000 -3.400000 -5.100000
468 1 6.800000 -3.400000 -1.700000
469 1 6.800000 -3.400000 1.700000
470 1 6.800000 -3.400000 5.100000
471 1 6.800000 -1.700000 -6.800000
472 1 6.800000 -1.700000 -3.400000
473 1 6.800000 -1.700000 0.000000
474 1 6.800000 -1.700000 3.400000
475 1 6.800000 -1.700000 6.800000
476 1 6.800000 0.000000 -8.500000
477 1 6.800000 0.000000 -5.100000
478 1 6.800000 0.000000 -1.700000
479 1 6.800000 0.000000 1.700000
480 1 6.800000 0.000000 5.100000
481 1 6.800000 1.700000 -6.800000
482 1 6.800000 1.700000 -3.400000
483 1 6.800000 1.700000 0.000000
484 1 6.800000 1.700000 3.400000
485 1 6.800000 1.700000 6.800000
486 1 6.800000 3.400000 -8.500000
487 1 6.800000 3.400000 -5.100000
488 1 6.800000 3.400000 -1.700000
489 1 6.800000 3.400000 1.700000
490 1 6.800000 3.400000 5.100000
491 1 6.800000 5.100000 -6.800000
492 1 6.800000 5.100000 -3.400000
493 1 6.800000 5.100000 0.000000
494 1 6.800000 5.100000 3.400000
495 1 6.800000 5.100000 6.800000
496 1 6.800000 6.800000 -8.500000
497 1 6.800000 6.800000 -5.100000
498 1 6.800000 6.800000 -1.700000
499 1 6.800000 6.800000 1.700000
500 1 6.800000 6.800000 5.100000
