ITEM: TIMESTEP
0
ITEM: NUMBER OF ATOMS
6750
ITEM: BOX BOUNDS pp pp pp
-26.25 26.25
-26.25 26.25
-26.25 26.25
ITEM: ATOMS id type x y z
1 1 -26.25 -26.25 -26.25
2 1 -26.25 -26.25 -22.75
3 1 -26.25 -26.25 -19.25
4 1 -26.25 -26.25 -15.75
5 1 -26.25 -26.25 -12.25
6 1 -26.25 -26.25 -8.75
7 1 -26.25 -26.25 -5.25
8 1 -26.25 -26.25 -1.75
9 1 -26.25 -26.25 1.75
10 1 -26.25 -26.25 5.25
11 1 -26.25 -26.25 8.75
12 1 -26.25 -26.25 12.25
13 1 -26.25 -26.25 15.75
14 1 -26.25 -26.25 19.25
15 1 -26.25 -26.25 22.75
16 1 -26.25 -22.75 -26.25
17 1 -26.25 -22.75 -22.75
18 1 -26.25 -22.75 -19.25
19 1 -26.25 -22.75 -15.75
20 1 -26.25 -22.75 -12.25
21 1 -26.25 -22.75 -8.75
22 1 -26.25 -22.75 -5.25
23 1 -26.25 -22.75 -1.75
24 1 -26.25 -22.75 1.75
25 1 -26.25 -22.75 5.25
26 1 -26.25 -22.75 8.75
27 1 -26.25 -22.75 12.25
28 1 -26.25 -22.75 15.75
29 1 -26.25 -22.75 19.25
30 1 -26.25 -22.75 22.75
31 1 -26.25 -19.25 -26.25
32 1 -26.25 -19.25 -22.75
33 1 -26.25 -19.25 -19.25
34 1 -26.25 -19.25 -15.75
35 1 -26.25 -19.25 -12.25
36 1 -26.25 -19.25 -8.75
37 1 -26.25 -19.25 -5.25
38 1 -26.25 -19.25 -1.75
39 1 -26.25 -19.25 1.75
40 1 -26.25 -19.25 5.25
41 1 -26.25 -19.25 8.75
42 1 -26.25 -19.25 12.25
43 1 -26.25 -19.25 15.75
44 1 -26.25 -19.25 19.25
45 1 -26.25 -19.25 22.75
46 1 -26.25 -15.75 -26.25
47 1 -26.25 -15.75 -22.75
48 1 -26.25 -15.75 -19.25
49 1 -26.25 -15.75 -15.75
50 1 -26.25 -15.75 -12.25
51 1 -26.25 -15.75 -8.75
52 1 -26.25 -15.75 -5.25
53 1 -26.25 -15.75 -1.75
54 1 -26.25 -15.75 1.75
55 1 -26.25 -15.75 5.25
56 1 -26.25 -15.75 8.75
57 1 -26.25 -15.75 12.25
58 1 -26.25 -15.75 15.75
59 1 -26.25 -15.75 19.25
60 1 -26.25 -15.75 22.75
61 1 -26.25 -12.25 -26.25
62 1 -26.25 -12.25 -22.75
63 1 -26.25 -12.25 -19.25
64 1 -26.25 -12.25 -15.75
65 1 -26.25 -12.25 -12.25
66 1 -26.25 -12.25 -8.75
67 1 -26.25 -12.25 -5.25
68 1 -26.25 -12.25 -1.75
69 1 -26.25 -12.25 1.75
70 1 -26.25 -12.25 5.25
71 1 -26.25 -12.25 8.75
72 1 -26.25 -12.25 12.25
73 1 -26.25 -12.25 15.75
74 1 -26.25 -12.25 19.25
75 1 -26.25 -12.25 22.75
76 1 -26.25 -8.75 -26.25
77 1 -26.25 -8.75 -22.75
78 1 -26.25 -8.75 -19.25
79 1 -26.25 -8.75 -15.75
80 1 -26.25 -8.75 -12.25
81 1 -26.25 -8.75 -8.75
82 1 -26.25 -8.75 -5.25
83 1 -26.25 -8.75 -1.75
84 1 -26.25 -8.75 1.75
85 1 -26.25 -8.75 5.25
86 1 -26.25 -8.75 8.75
87 1 -26.25 -8.75 12.25
88 1 -26.25 -8.75 15.75
89 1 -26.25 -8.75 19.25
90 1 -26.25 -8.75 22.75
91 1 -26.25 -5.25 -26.25
92 1 -26.25 -5.25 -22.75
93 1 -26.25 -5.25 -19.25
94 1 -26.25 -5.25 -15.75
95 1 -26.25 -5.25 -12.25
96 1 -26.25 -5.25 -8.75
97 1 -26.25 -5.25 -5.25
98 1 -26.25 -5.25 -1.75
99 1 -26.25 -5.25 1.75
100 1 -26.25 -5.25 5.25
101 1 -26.25 -5.25 8.75
102 1 -26.25 -5.25 12.25
103 1 -26.25 -5.25 15.75
104 1 -26.25 -5.25 19.25
105 1 -26.25 -5.25 22.75
106 1 -26.25 -1.75 -26.25
107 1 -26.25 -1.75 -22.75
108 1 -26.25 -1.75 -19.25
109 1 -26.25 -1.75 -15.75
110 1 -26.25 -1.75 -12.25
111 1 -26.25 -1.75 -8.75
112 1 -26.25 -1.75 -5.25
113 1 -26.25 -1.75 -1.75
114 1 -26.25 -1.75 1.75
115 1 -26.25 -1.75 5.25
116 1 -26.25 -1.75 8.75
117 1 -26.25 -1.75 12.25
118 1 -26.25 -1.75 15.75
119 1 -26.25 -1.75 19.25
120 1 -26.25 -1.75 22.75
121 1 -26.25 1.75 -26.25
122 1 -26.25 1.75 -22.75
123 1 -26.25 1.75 -19.25
124 1 -26.25 1.75 -15.75
125 1 -26.25 1.75 -12.25
126 1 -26.25 1.75 -8.75
127 1 -26.25 1.75 -5.25
128 1 -26.25 1.75 -1.75
129 1 -26.25 1.75 1.75
130 1 -26.25 1.75 5.25
131 1 -26.25 1.75 8.75
132 1 -26.25 1.75 12.25
133 1 -26.25 1.75 15.75
134 1 -26.25 1.75 19.25
135 1 -26.25 1.75 22.75
136 1 -26.25 5.25 -26.25
137 1 -26.25 5.25 -22.75
138 1 -26.25 5.25 -19.25
139 1 -26.25 5.25 -15.75
140 1 -26.25 5.25 -12.25
141 1 -26.25 5.25 -8.75
142 1 -26.25 5.25 -5.25
143 1 -26.25 5.25 -1.75
144 1 -26.25 5.25 1.75
145 1 -26.25 5.25 5.25
146 1 -26.25 5.25 8.75
147 1 -26.25 5.25 12.25
148 1 -26.25 5.25 15.75
149 1 -26.25 5.25 19.25
150 1 -26.25 5.25 22.75
151 1 -26.25 8.75 -26.25
152 1 -26.25 8.75 -22.75
153 1 -26.25 8.75 -19.25
154 1 -26.25 8.75 -15.75
155 1 -26.25 8.75 -12.25
156 1 -26.25 8.75 -8.75
157 1 -26.25 8.75 -5.25
158 1 -26.25 8.75 -1.75
159 1 -26.25 8.75 1.75
160 1 -26.25 8.75 5.25
161 1 -26.25 8.75 8.75
162 1 -26.25 8.75 12.25
163 1 -26.25 8.75 15.75
164 1 -26.25 8.75 19.25
165 1 -26.25 8.75 22.75
166 1 -26.25 12.25 -26.25
167 1 -26.25 12.25 -22.75
168 1 -26.25 12.25 -19.25
169 1 -26.25 12.25 -15.75
170 1 -26.25 12.25 -12.25
171 1 -26.25 12.25 -8.75
172 1 -26.25 12.25 -5.25
173 1 -26.25 12.25 -1.75
174 1 -26.25 12.25 1.75
175 1 -26.25 12.25 5.25
176 1 -26.25 12.25 8.75
177 1 -26.25 12.25 12.25
178 1 -26.25 12.25 15.75
179 1 -26.25 12.25 19.25
180 1 -26.25 12.25 22.75
181 1 -26.25 15.75 -26.25
182 1 -26.25 15.75 -22.75
183 1 -26.25 15.75 -19.25
184 1 -26.25 15.75 -15.75
185 1 -26.25 15.75 -12.25
186 1 -26.25 15.75 -8.75
187 1 -26.25 15.75 -5.25
188 1 -26.25 15.75 -1.75
189 1 -26.25 15.75 1.75
190 1 -26.25 15.75 5.25
191 1 -26.25 15.75 8.75
192 1 -26.25 15.75 12.25
193 1 -26.25 15.75 15.75
194 1 -26.25 15.75 19.25
195 1 -26.25 15.75 22.75
196 1 -26.25 19.25 -26.25
197 1 -26.25 19.25 -22.75
198 1 -26.25 19.25 -19.25
199 1 -26.25 19.25 -15.75
200 1 -26.25 19.25 -12.25
201 1 -26.25 19.25 -8.75
202 1 -26.25 19.25 -5.25
203 1 -26.25 19.25 -1.75
204 1 -26.25 19.25 1.75
205 1 -26.25 19.25 5.25
206 1 -26.25 19.25 8.75
207 1 -26.25 19.25 12.25
208 1 -26.25 19.25 15.75
209 1 -26.25 19.25 19.25
210 1 -26.25 19.25 22.75
211 1 -26.25 22.75 -26.25
212 1 -26.25 22.75 -22.75
213 1 -26.25 22.75 -19.25
214 1 -26.25 22.75 -15.75
215 1 -26.25 22.75 -12.25
216 1 -26.25 22.75 -8.75
217 1 -26.25 22.75 -5.25
218 1 -26.25 22.75 -1.75
219 1 -26.25 22.75 1.75
220 1 -26.25 22.75 5.25
221 1 -26.25 22.75 8.75
222 1 -26.25 22.75 12.25
223 1 -26.25 22.75 15.75
224 1 -26.25 22.75 19.25
225 1 -26.25 22.75 22.75
226 1 -24.5 -24.5 -24.5
227 1 -24.5 -24.5 -21.0
228 1 -24.5 -24.5 -17.5
229 1 -24.5 -24.5 -14.0
230 1 -24.5 -24.5 -10.5
231 1 -24.5 -24.5 -7.0
232 1 -24.5 -24.5 -3.5
233 1 -24.5 -24.5 0.0
234 1 -24.5 -24.5 3.5
235 1 -24.5 -24.5 7.0
236 1 -24.5 -24.5 10.5
237 1 -24.5 -24.5 14.0
238 1 -24.5 -24.5 17.5
239 1 -24.5 -24.5 21.0
240 1 -24.5 -24.5 24.5
241 1 -24.5 -21.0 -24.5
242 1 -24.5 -21.0 -21.0
243 1 -24.5 -21.0 -17.5
244 1 -24.5 -21.0 -14.0
245 1 -24.5 -21.0 -10.5
246 1 -24.5 -21.0 -7.0
247 1 -24.5 -21.0 -3.5
248 1 -24.5 -21.0 0.0
249 1 -24.5 -21.0 3.5
250 1 -24.5 -21.0 7.0
251 1 -24.5 -21.0 10.5
252 1 -24.5 -21.0 14.0
253 1 -24.5 -21.0 17.5
254 1 -24.5 -21.0 21.0
255 1 -24.5 -21.0 24.5
256 1 -24.5 -17.5 -24.5
257 1 -24.5 -17.5 -21.0
258 1 -24.5 -17.5 -17.5
259 1 -24.5 -17.5 -14.0
260 1 -24.5 -17.5 -10.5
261 1 -24.5 -17.5 -7.0
262 1 -24.5 -17.5 -3.5
263 1 -24.5 -17.5 0.0
264 1 -24.5 -17.5 3.5
265 1 -24.5 -17.5 7.0
266 1 -24.5 -17.5 10.5
267 1 -24.5 -17.5 14.0
268 1 -24.5 -17.5 17.5
269 1 -24.5 -17.5 21.0
270 1 -24.5 -17.5 24.5
271 1 -24.5 -14.0 -24.5
272 1 -24.5 -14.0 -21.0
273 1 -24.5 -14.0 -17.5
274 1 -24.5 -14.0 -14.0
275 1 -24.5 -14.0 -10.5
276 1 -24.5 -14.0 -7.0
277 1 -24.5 -14.0 -3.5
278 1 -24.5 -14.0 0.0
279 1 -24.5 -14.0 3.5
280 1 -24.5 -14.0 7.0
281 1 -24.5 -14.0 10.5
282 1 -24.5 -14.0 14.0
283 1 -24.5 -14.0 17.5
284 1 -24.5 -14.0 21.0
285 1 -24.5 -14.0 24.5
286 1 -24.5 -10.5 -24.5
287 1 -24.5 -10.5 -21.0
288 1 -24.5 -10.5 -17.5
289 1 -24.5 -10.5 -14.0
290 1 -24.5 -10.5 -10.5
291 1 -24.5 -10.5 -7.0
292 1 -24.5 -10.5 -3.5
293 1 -24.5 -10.5 0.0
294 1 -24.5 -10.5 3.5
295 1 -24.5 -10.5 7.0
296 1 -24.5 -10.5 10.5
297 1 -24.5 -10.5 14.0
298 1 -24.5 -10.5 17.5
299 1 -24.5 -10.5 21.0
300 1 -24.5 -10.5 24.5
301 1 -24.5 -7.0 -24.5
302 1 -24.5 -7.0 -21.0
303 1 -24.5 -7.0 -17.5
304 1 -24.5 -7.0 -14.0
305 1 -24.5 -7.0 -10.5
306 1 -24.5 -7.0 -7.0
307 1 -24.5 -7.0 -3.5
308 1 -24.5 -7.0 0.0
309 1 -24.5 -7.0 3.5
310 1 -24.5 -7.0 7.0
311 1 -24.5 -7.0 10.5
312 1 -24.5 -7.0 14.0
313 1 -24.5 -7.0 17.5
314 1 -24.5 -7.0 21.0
315 1 -24.5 -7.0 24.5
316 1 -24.5 -3.5 -24.5
317 1 -24.5 -3.5 -21.0
318 1 -24.5 -3.5 -17.5
319 1 -24.5 -3.5 -14.0
320 1 -24.5 -3.5 -10.5
321 1 -24.5 -3.5 -7.0
322 1 -24.5 -3.5 -3.5
323 1 -24.5 -3.5 0.0
324 1 -24.5 -3.5 3.5
325 1 -24.5 -3.5 7.0
326 1 -24.5 -3.5 10.5
327 1 -24.5 -3.5 14.0
328 1 -24.5 -3.5 17.5
329 1 -24.5 -3.5 21.0
330 1 -24.5 -3.5 24.5
331 1 -24.5 0.0 -24.5
332 1 -24.5 0.0 -21.0
333 1 -24.5 0.0 -17.5
334 1 -24.5 0.0 -14.0
335 1 -24.5 0.0 -10.5
336 1 -24.5 0.0 -7.0
337 1 -24.5 0.0 -3.5
338 1 -24.5 0.0 0.0
339 1 -24.5 0.0 3.5
340 1 -24.5 0.0 7.0
341 1 -24.5 0.0 10.5
342 1 -24.5 0.0 14.0
343 1 -24.5 0.0 17.5
344 1 -24.5 0.0 21.0
345 1 -24.5 0.0 24.5
346 1 -24.5 3.5 -24.5
347 1 -24.5 3.5 -21.0
348 1 -24.5 3.5 -17.5
349 1 -24.5 3.5 -14.0
350 1 -24.5 3.5 -10.5
351 1 -24.5 3.5 -7.0
352 1 -24.5 3.5 -3.5
353 1 -24.5 3.5 0.0
354 1 -24.5 3.5 3.5
355 1 -24.5 3.5 7.0
356 1 -24.5 3.5 10.5
357 1 -24.5 3.5 14.0
358 1 -24.5 3.5 17.5
359 1 -24.5 3.5 21.0
360 1 -24.5 3.5 24.5
361 1 -24.5 7.0 -24.5
362 1 -24.5 7.0 -21.0
363 1 -24.5 7.0 -17.5
364 1 -24.5 7.0 -14.0
365 1 -24.5 7.0 -10.5
366 1 -24.5 7.0 -7.0
367 1 -24.5 7.0 -3.5
368 1 -24.5 7.0 0.0
369 1 -24.5 7.0 3.5
370 1 -24.5 7.0 7.0
371 1 -24.5 7.0 10.5
372 1 -24.5 7.0 14.0
373 1 -24.5 7.0 17.5
374 1 -24.5 7.0 21.0
375 1 -24.5 7.0 24.5
376 1 -24.5 10.5 -24.5
377 1 -24.5 10.5 -21.0
378 1 -24.5 10.5 -17.5
379 1 -24.5 10.5 -14.0
380 1 -24.5 10.5 -10.5
381 1 -24.5 10.5 -7.0
382 1 -24.5 10.5 -3.5
383 1 -24.5 10.5 0.0
384 1 -24.5 10.5 3.5
385 1 -24.5 10.5 7.0
386 1 -24.5 10.5 10.5
387 1 -24.5 10.5 14.0
388 1 -24.5 10.5 17.5
389 1 -24.5 10.5 21.0
390 1 -24.5 10.5 24.5
391 1 -24.5 14.0 -24.5
392 1 -24.5 14.0 -21.0
393 1 -24.5 14.0 -17.5
394 1 -24.5 14.0 -14.0
395 1 -24.5 14.0 -10.5
396 1 -24.5 14.0 -7.0
397 1 -24.5 14.0 -3.5
398 1 -24.5 14.0 0.0
399 1 -24.5 14.0 3.5
400 1 -24.5 14.0 7.0
401 1 -24.5 14.0 10.5
402 1 -24.5 14.0 14.0
403 1 -24.5 14.0 17.5
404 1 -24.5 14.0 21.0
405 1 -24.5 14.0 24.5
406 1 -24.5 17.5 -24.5
407 1 -24.5 17.5 -21.0
408 1 -24.5 17.5 -17.5
409 1 -24.5 17.5 -14.0
410 1 -24.5 17.5 -10.5
411 1 -24.5 17.5 -7.0
412 1 -24.5 17.5 -3.5
413 1 -24.5 17.5 0.0
414 1 -24.5 17.5 3.5
415 1 -24.5 17.5 7.0
416 1 -24.5 17.5 10.5
417 1 -24.5 17.5 14.0
418 1 -24.5 17.5 17.5
419 1 -24.5 17.5 21.0
420 1 -24.5 17.5 24.5
421 1 -24.5 21.0 -24.5
422 1 -24.5 21.0 -21.0
423 1 -24.5 21.0 -17.5
424 1 -24.5 21.0 -14.0
425 1 -24.5 21.0 -10.5
426 1 -24.5 21.0 -7.0
427 1 -24.5 21.0 -3.5
428 1 -24.5 21.0 0.0
429 1 -24.5 21.0 3.5
430 1 -24.5 21.0 7.0
431 1 -24.5 21.0 10.5
432 1 -24.5 21.0 14.0
433 1 -24.5 21.0 17.5
434 1 -24.5 21.0 21.0
435 1 -24.5 21.0 24.5
436 1 -24.5 24.5 -24.5
437 1 -24.5 24.5 -21.0
438 1 -24.5 24.5 -17.5
439 1 -24.5 24.5 -14.0
440 1 -24.5 24.5 -10.5
441 1 -24.5 24.5 -7.0
442 1 -24.5 24.5 -3.5
443 1 -24.5 24.5 0.0
444 1 -24.5 24.5 3.5
445 1 -24.5 24.5 7.0
446 1 -24.5 24.5 10.5
447 1 -24.5 24.5 14.0
448 1 -24.5 24.5 17.5
449 1 -24.5 24.5 21.0
450 1 -24.5 24.5 24.5
451 1 -22.75 -26.25 -26.25
452 1 -22.75 -26.25 -22.75
453 1 -22.75 -26.25 -19.25
454 1 -22.75 -26.25 -15.75
455 1 -22.75 -26.25 -12.25
456 1 -22.75 -26.25 -8.75
457 1 -22.75 -26.25 -5.25
458 1 -22.75 -26.25 -1.75
459 1 -22.75 -26.25 1.75
460 1 -22.75 -26.25 5.25
461 1 -22.75 -26.25 8.75
462 1 -22.75 -26.25 12.25
463 1 -22.75 -26.25 15.75
464 1 -22.75 -26.25 19.25
465 1 -22.75 -26.25 22.75
466 1 -22.75 -22.75 -26.25
467 1 -22.75 -22.75 -22.75
468 1 -22.75 -22.75 -19.25
469 1 -22.75 -22.75 -15.75
470 1 -22.75 -22.75 -12.25
471 1 -22.75 -22.75 -8.75
472 1 -22.75 -22.75 -5.25
473 1 -22.75 -22.75 -1.75
474 1 -22.75 -22.75 1.75
475 1 -22.75 -22.75 5.25
476 1 -22.75 -22.75 8.75
477 1 -22.75 -22.75 12.25
478 1 -22.75 -22.75 15.75
479 1 -22.75 -22.75 19.25
480 1 -22.75 -22.75 22.75
481 1 -22.75 -19.25 -26.25
482 1 -22.75 -19.25 -22.75
483 1 -22.75 -19.25 -19.25
484 1 -22.75 -19.25 -15.75
485 1 -22.75 -19.25 -12.25
486 1 -22.75 -19.25 -8.75
487 1 -22.75 -19.25 -5.25
488 1 -22.75 -19.25 -1.75
489 1 -22.75 -19.25 1.75
490 1 -22.75 -19.25 5.25
491 1 -22.75 -19.25 8.75
492 1 -22.75 -19.25 12.25
493 1 -22.75 -19.25 15.75
494 1 -22.75 -19.25 19.25
495 1 -22.75 -19.25 22.75
496 1 -22.75 -15.75 -26.25
497 1 -22.75 -15.75 -22.75
498 1 -22.75 -15.75 -19.25
499 1 -22.75 -15.75 -15.75
500 1 -22.75 -15.75 -12.25
501 1 -22.75 -15.75 -8.75
502 1 -22.75 -15.75 -5.25
503 1 -22.75 -15.75 -1.75
504 1 -22.75 -15.75 1.75
505 1 -22.75 -15.75 5.25
506 1 -22.75 -15.75 8.75
507 1 -22.75 -15.75 12.25
508 1 -22.75 -15.75 15.75
509 1 -22.75 -15.75 19.25
510 1 -22.75 -15.75 22.75
511 1 -22.75 -12.25 -26.25
512 1 -22.75 -12.25 -22.75
513 1 -22.75 -12.25 -19.25
514 1 -22.75 -12.25 -15.75
515 1 -22.75 -12.25 -12.25
516 1 -22.75 -12.25 -8.75
517 1 -22.75 -12.25 -5.25
518 1 -22.75 -12.25 -1.75
519 1 -22.75 -12.25 1.75
520 1 -22.75 -12.25 5.25
521 1 -22.75 -12.25 8.75
522 1 -22.75 -12.25 12.25
523 1 -22.75 -12.25 15.75
524 1 -22.75 -12.25 19.25
525 1 -22.75 -12.25 22.75
526 1 -22.75 -8.75 -26.25
527 1 -22.75 -8.75 -22.75
528 1 -22.75 -8.75 -19.25
529 1 -22.75 -8.75 -15.75
530 1 -22.75 -8.75 -12.25
531 1 -22.75 -8.75 -8.75
532 1 -22.75 -8.75 -5.25
533 1 -22.75 -8.75 -1.75
534 1 -22.75 -8.75 1.75
535 1 -22.75 -8.75 5.25
536 1 -22.75 -8.75 8.75
537 1 -22.75 -8.75 12.25
538 1 -22.75 -8.75 15.75
539 1 -22.75 -8.75 19.25
540 1 -22.75 -8.75 22.75
541 1 -22.75 -5.25 -26.25
542 1 -22.75 -5.25 -22.75
543 1 -22.75 -5.25 -19.25
544 1 -22.75 -5.25 -15.75
545 1 -22.75 -5.25 -12.25
546 1 -22.75 -5.25 -8.75
547 1 -22.75 -5.25 -5.25
548 1 -22.75 -5.25 -1.75
549 1 -22.75 -5.25 1.75
550 1 -22.75 -5.25 5.25
551 1 -22.75 -5.25 8.75
552 1 -22.75 -5.25 12.25
553 1 -22.75 -5.25 15.75
554 1 -22.75 -5.25 19.25
555 1 -22.75 -5.25 22.75
556 1 -22.75 -1.75 -26.25
557 1 -22.75 -1.75 -22.75
558 1 -22.75 -1.75 -19.25
559 1 -22.75 -1.75 -15.75
560 1 -22.75 -1.75 -12.25
561 1 -22.75 -1.75 -8.75
562 1 -22.75 -1.75 -5.25
563 1 -22.75 -1.75 -1.75
564 1 -22.75 -1.75 1.75
565 1 -22.75 -1.75 5.25
566 1 -22.75 -1.75 8.75
567 1 -22.75 -1.75 12.25
568 1 -22.75 -1.75 15.75
569 1 -22.75 -1.75 19.25
570 1 -22.75 -1.75 22.75
571 1 -22.75 1.75 -26.25
572 1 -22.75 1.75 -22.75
573 1 -22.75 1.75 -19.25
574 1 -22.75 1.75 -15.75
575 1 -22.75 1.75 -12.25
576 1 -22.75 1.75 -8.75
577 1 -22.75 1.75 -5.25
578 1 -22.75 1.75 -1.75
579 1 -22.75 1.75 1.75
580 1 -22.75 1.75 5.25
581 1 -22.75 1.75 8.75
582 1 -22.75 1.75 12.25
583 1 -22.75 1.75 15.75
584 1 -22.75 1.75 19.25
585 1 -22.75 1.75 22.75
586 1 -22.75 5.25 -26.25
587 1 -22.75 5.25 -22.75
588 1 -22.75 5.25 -19.25
589 1 -22.75 5.25 -15.75
590 1 -22.75 5.25 -12.25
591 1 -22.75 5.25 -8.75
592 1 -22.75 5.25 -5.25
593 1 -22.75 5.25 -1.75
594 1 -22.75 5.25 1.75
595 1 -22.75 5.25 5.25
596 1 -22.75 5.25 8.75
597 1 -22.75 5.25 12.25
598 1 -22.75 5.25 15.75
599 1 -22.75 5.25 19.25
600 1 -22.75 5.25 22.75
601 1 -22.75 8.75 -26.25
602 1 -22.75 8.75 -22.75
603 1 -22.75 8.75 -19.25
604 1 -22.75 8.75 -15.75
605 1 -22.75 8.75 -12.25
606 1 -22.75 8.75 -8.75
607 1 -22.75 8.75 -5.25
608 1 -22.75 8.75 -1.75
609 1 -22.75 8.75 1.75
610 1 -22.75 8.75 5.25
611 1 -22.75 8.75 8.75
612 1 -22.75 8.75 12.25
613 1 -22.75 8.75 15.75
614 1 -22.75 8.75 19.25
615 1 -22.75 8.75 22.75
616 1 -22.75 12.25 -26.25
617 1 -22.75 12.25 -22.75
618 1 -22.75 12.25 -19.25
619 1 -22.75 12.25 -15.75
620 1 -22.75 12.25 -12.25
621 1 -22.75 12.25 -8.75
622 1 -22.75 12.25 -5.25
623 1 -22.75 12.25 -1.75
624 1 -22.75 12.25 1.75
625 1 -22.75 12.25 5.25
626 1 -22.75 12.25 8.75
627 1 -22.75 12.25 12.25
628 1 -22.75 12.25 15.75
629 1 -22.75 12.25 19.25
630 1 -22.75 12.25 22.75
631 1 -22.75 15.75 -26.25
632 1 -22.75 15.75 -22.75
633 1 -22.75 15.75 -19.25
634 1 -22.75 15.75 -15.75
635 1 -22.75 15.75 -12.25
636 1 -22.75 15.75 -8.75
637 1 -22.75 15.75 -5.25
638 1 -22.75 15.75 -1.75
639 1 -22.75 15.75 1.75
640 1 -22.75 15.75 5.25
641 1 -22.75 15.75 8.75
642 1 -22.75 15.75 12.25
643 1 -22.75 15.75 15.75
644 1 -22.75 15.75 19.25
645 1 -22.75 15.75 22.75
646 1 -22.75 19.25 -26.25
647 1 -22.75 19.25 -22.75
648 1 -22.75 19.25 -19.25
649 1 -22.75 19.25 -15.75
650 1 -22.75 19.25 -12.25
651 1 -22.75 19.25 -8.75
652 1 -22.75 19.25 -5.25
653 1 -22.75 19.25 -1.75
654 1 -22.75 19.25 1.75
655 1 -22.75 19.25 5.25
656 1 -22.75 19.25 8.75
657 1 -22.75 19.25 12.25
658 1 -22.75 19.25 15.75
659 1 -22.75 19.25 19.25
660 1 -22.75 19.25 22.75
661 1 -22.75 22.75 -26.25
662 1 -22.75 22.75 -22.75
663 1 -22.75 22.75 -19.25
664 1 -22.75 22.75 -15.75
665 1 -22.75 22.75 -12.25
666 1 -22.75 22.75 -8.75
667 1 -22.75 22.75 -5.25
668 1 -22.75 22.75 -1.75
669 1 -22.75 22.75 1.75
670 1 -22.75 22.75 5.25
671 1 -22.75 22.75 8.75
672 1 -22.75 22.75 12.25
673 1 -22.75 22.75 15.75
674 1 -22.75 22.75 19.25
675 1 -22.75 22.75 22.75
676 1 -21.0 -24.5 -24.5
677 1 -21.0 -24.5 -21.0
678 1 -21.0 -24.5 -17.5
679 1 -21.0 -24.5 -14.0
680 1 -21.0 -24.5 -10.5
681 1 -21.0 -24.5 -7.0
682 1 -21.0 -24.5 -3.5
683 1 -21.0 -24.5 0.0
684 1 -21.0 -24.5 3.5
685 1 -21.0 -24.5 7.0
686 1 -21.0 -24.5 10.5
687 1 -21.0 -24.5 14.0
688 1 -21.0 -24.5 17.5
689 1 -21.0 -24.5 21.0
690 1 -21.0 -24.5 24.5
691 1 -21.0 -21.0 -24.5
692 1 -21.0 -21.0 -21.0
693 1 -21.0 -21.0 -17.5
694 1 -21.0 -21.0 -14.0
695 1 -21.0 -21.0 -10.5
696 1 -21.0 -21.0 -7.0
697 1 -21.0 -21.0 -3.5
698 1 -21.0 -21.0 0.0
699 1 -21.0 -21.0 3.5
700 1 -21.0 -21.0 7.0
701 1 -21.0 -21.0 10.5
702 1 -21.0 -21.0 14.0
703 1 -21.0 -21.0 17.5
704 1 -21.0 -21.0 21.0
705 1 -21.0 -21.0 24.5
706 1 -21.0 -17.5 -24.5
707 1 -21.0 -17.5 -21.0
708 1 -21.0 -17.5 -17.5
709 1 -21.0 -17.5 -14.0
710 1 -21.0 -17.5 -10.5
711 1 -21.0 -17.5 -7.0
712 1 -21.0 -17.5 -3.5
713 1 -21.0 -17.5 0.0
714 1 -21.0 -17.5 3.5
715 1 -21.0 -17.5 7.0
716 1 -21.0 -17.5 10.5
717 1 -21.0 -17.5 14.0
718 1 -21.0 -17.5 17.5
719 1 -21.0 -17.5 21.0
720 1 -21.0 -17.5 24.5
721 1 -21.0 -14.0 -24.5
722 1 -21.0 -14.0 -21.0
723 1 -21.0 -14.0 -17.5
724 1 -21.0 -14.0 -14.0
725 1 -21.0 -14.0 -10.5
726 1 -21.0 -14.0 -7.0
727 1 -21.0 -14.0 -3.5
728 1 -21.0 -14.0 0.0
729 1 -21.0 -14.0 3.5
730 1 -21.0 -14.0 7.0
731 1 -21.0 -14.0 10.5
732 1 -21.0 -14.0 14.0
733 1 -21.0 -14.0 17.5
734 1 -21.0 -14.0 21.0
735 1 -21.0 -14.0 24.5
736 1 -21.0 -10.5 -24.5
737 1 -21.0 -10.5 -21.0
738 1 -21.0 -10.5 -17.5
739 1 -21.0 -10.5 -14.0
740 1 -21.0 -10.5 -10.5
741 1 -21.0 -10.5 -7.0
742 1 -21.0 -10.5 -3.5
743 1 -21.0 -10.5 0.0
744 1 -21.0 -10.5 3.5
745 1 -21.0 -10.5 7.0
746 1 -21.0 -10.5 10.5
747 1 -21.0 -10.5 14.0
748 1 -21.0 -10.5 17.5
749 1 -21.0 -10.5 21.0
750 1 -21.0 -10.5 24.5
751 1 -21.0 -7.0 -24.5
752 1 -21.0 -7.0 -21.0
753 1 -21.0 -7.0 -17.5
754 1 -21.0 -7.0 -14.0
755 1 -21.0 -7.0 -10.5
756 1 -21.0 -7.0 -7.0
757 1 -21.0 -7.0 -3.5
758 1 -21.0 -7.0 0.0
759 1 -21.0 -7.0 3.5
760 1 -21.0 -7.0 7.0
761 1 -21.0 -7.0 10.5
762 1 -21.0 -7.0 14.0
763 1 -21.0 -7.0 17.5
764 1 -21.0 -7.0 21.0
765 1 -21.0 -7.0 24.5
766 1 -21.0 -3.5 -24.5
767 1 -21.0 -3.5 -21.0
768 1 -21.0 -3.5 -17.5
769 1 -21.0 -3.5 -14.0
770 1 -21.0 -3.5 -10.5
771 1 -21.0 -3.5 -7.0
772 1 -21.0 -3.5 -3.5
773 1 -21.0 -3.5 0.0
774 1 -21.0 -3.5 3.5
775 1 -21.0 -3.5 7.0
776 1 -21.0 -3.5 10.5
777 1 -21.0 -3.5 14.0
778 1 -21.0 -3.5 17.5
779 1 -21.0 -3.5 21.0
780 1 -21.0 -3.5 24.5
781 1 -21.0 0.0 -24.5
782 1 -21.0 0.0 -21.0
783 1 -21.0 0.0 -17.5
784 1 -21.0 0.0 -14.0
785 1 -21.0 0.0 -10.5
786 1 -21.0 0.0 -7.0
787 1 -21.0 0.0 -3.5
788 1 -21.0 0.0 0.0
789 1 -21.0 0.0 3.5
790 1 -21.0 0.0 7.0
791 1 -21.0 0.0 10.5
792 1 -21.0 0.0 14.0
793 1 -21.0 0.0 17.5
794 1 -21.0 0.0 21.0
795 1 -21.0 0.0 24.5
796 1 -21.0 3.5 -24.5
797 1 -21.0 3.5 -21.0
798 1 -21.0 3.5 -17.5
799 1 -21.0 3.5 -14.0
800 1 -21.0 3.5 -10.5
801 1 -21.0 3.5 -7.0
802 1 -21.0 3.5 -3.5
803 1 -21.0 3.5 0.0
804 1 -21.0 3.5 3.5
805 1 -21.0 3.5 7.0
806 1 -21.0 3.5 10.5
807 1 -21.0 3.5 14.0
808 1 -21.0 3.5 17.5
809 1 -21.0 3.5 21.0
810 1 -21.0 3.5 24.5
811 1 -21.0 7.0 -24.5
812 1 -21.0 7.0 -21.0
813 1 -21.0 7.0 -17.5
814 1 -21.0 7.0 -14.0
815 1 -21.0 7.0 -10.5
816 1 -21.0 7.0 -7.0
817 1 -21.0 7.0 -3.5
818 1 -21.0 7.0 0.0
819 1 -21.0 7.0 3.5
820 1 -21.0 7.0 7.0
821 1 -21.0 7.0 10.5
822 1 -21.0 7.0 14.0
823 1 -21.0 7.0 17.5
824 1 -21.0 7.0 21.0
825 1 -21.0 7.0 24.5
826 1 -21.0 10.5 -24.5
827 1 -21.0 10.5 -21.0
828 1 -21.0 10.5 -17.5
829 1 -21.0 10.5 -14.0
830 1 -21.0 10.5 -10.5
831 1 -21.0 10.5 -7.0
832 1 -21.0 10.5 -3.5
833 1 -21.0 10.5 0.0
834 1 -21.0 10.5 3.5
835 1 -21.0 10.5 7.0
836 1 -21.0 10.5 10.5
837 1 -21.0 10.5 14.0
838 1 -21.0 10.5 17.5
839 1 -21.0 10.5 21.0
840 1 -21.0 10.5 24.5
841 1 -21.0 14.0 -24.5
842 1 -21.0 14.0 -21.0
843 1 -21.0 14.0 -17.5
844 1 -21.0 14.0 -14.0
845 1 -21.0 14.0 -10.5
846 1 -21.0 14.0 -7.0
847 1 -21.0 14.0 -3.5
848 1 -21.0 14.0 0.0
849 1 -21.0 14.0 3.5
850 1 -21.0 14.0 7.0
851 1 -21.0 14.0 10.5
852 1 -21.0 14.0 14.0
853 1 -21.0 14.0 17.5
854 1 -21.0 14.0 21.0
855 1 -21.0 14.0 24.5
856 1 -21.0 17.5 -24.5
857 1 -21.0 17.5 -21.0
858 1 -21.0 17.5 -17.5
859 1 -21.0 17.5 -14.0
860 1 -21.0 17.5 -10.5
861 1 -21.0 17.5 -7.0
862 1 -21.0 17.5 -3.5
863 1 -21.0 17.5 0.0
864 1 -21.0 17.5 3.5
865 1 -21.0 17.5 7.0
866 1 -21.0 17.5 10.5
867 1 -21.0 17.5 14.0
868 1 -21.0 17.5 17.5
869 1 -21.0 17.5 21.0
870 1 -21.0 17.5 24.5
871 1 -21.0 21.0 -24.5
872 1 -21.0 21.0 -21.0
873 1 -21.0 21.0 -17.5
874 1 -21.0 21.0 -14.0
875 1 -21.0 21.0 -10.5
876 1 -21.0 21.0 -7.0
877 1 -21.0 21.0 -3.5
878 1 -21.0 21.0 0.0
879 1 -21.0 21.0 3.5
880 1 -21.0 21.0 7.0
881 1 -21.0 21.0 10.5
882 1 -21.0 21.0 14.0
883 1 -21.0 21.0 17.5
884 1 -21.0 21.0 21.0
885 1 -21.0 21.0 24.5
886 1 -21.0 24.5 -24.5
887 1 -21.0 24.5 -21.0
888 1 -21.0 24.5 -17.5
889 1 -21.0 24.5 -14.0
890 1 -21.0 24.5 -10.5
891 1 -21.0 24.5 -7.0
892 1 -21.0 24.5 -3.5
893 1 -21.0 24.5 0.0
894 1 -21.0 24.5 3.5
895 1 -21.0 24.5 7.0
896 1 -21.0 24.5 10.5
897 1 -21.0 24.5 14.0
898 1 -21.0 24.5 17.5
899 1 -21.0 24.5 21.0
900 1 -21.0 24.5 24.5
901 1 -19.25 -26.25 -26.25
902 1 -19.25 -26.25 -22.75
903 1 -19.25 -26.25 -19.25
904 1 -19.25 -26.25 -15.75
905 1 -19.25 -26.25 -12.25
906 1 -19.25 -26.25 -8.75
907 1 -19.25 -26.25 -5.25
908 1 -19.25 -26.25 -1.75
909 1 -19.25 -26.25 1.75
910 1 -19.25 -26.25 5.25
911 1 -19.25 -26.25 8.75
912 1 -19.25 -26.25 12.25
913 1 -19.25 -26.25 15.75
914 1 -19.25 -26.25 19.25
915 1 -19.25 -26.25 22.75
916 1 -19.25 -22.75 -26.25
917 1 -19.25 -22.75 -22.75
918 1 -19.25 -22.75 -19.25
919 1 -19.25 -22.75 -15.75
920 1 -19.25 -22.75 -12.25
921 1 -19.25 -22.75 -8.75
922 1 -19.25 -22.75 -5.25
923 1 -19.25 -22.75 -1.75
924 1 -19.25 -22.75 1.75
925 1 -19.25 -22.75 5.25
926 1 -19.25 -22.75 8.75
927 1 -19.25 -22.75 12.25
928 1 -19.25 -22.75 15.75
929 1 -19.25 -22.75 19.25
930 1 -19.25 -22.75 22.75
931 1 -19.25 -19.25 -26.25
932 1 -19.25 -19.25 -22.75
933 1 -19.25 -19.25 -19.25
934 1 -19.25 -19.25 -15.75
935 1 -19.25 -19.25 -12.25
936 1 -19.25 -19.25 -8.75
937 1 -19.25 -19.25 -5.25
938 1 -19.25 -19.25 -1.75
939 1 -19.25 -19.25 1.75
940 1 -19.25 -19.25 5.25
941 1 -19.25 -19.25 8.75
942 1 -19.25 -19.25 12.25
943 1 -19.25 -19.25 15.75
944 1 -19.25 -19.25 19.25
945 1 -19.25 -19.25 22.75
946 1 -19.25 -15.75 -26.25
947 1 -19.25 -15.75 -22.75
948 1 -19.25 -15.75 -19.25
949 1 -19.25 -15.75 -15.75
950 1 -19.25 -15.75 -12.25
951 1 -19.25 -15.75 -8.75
952 1 -19.25 -15.75 -5.25
953 1 -19.25 -15.75 -1.75
954 1 -19.25 -15.75 1.75
955 1 -19.25 -15.75 5.25
956 1 -19.25 -15.75 8.75
957 1 -19.25 -15.75 12.25
958 1 -19.25 -15.75 15.75
959 1 -19.25 -15.75 19.25
960 1 -19.25 -15.75 22.75
961 1 -19.25 -12.25 -26.25
962 1 -19.25 -12.25 -22.75
963 1 -19.25 -12.25 -19.25
964 1 -19.25 -12.25 -15.75
965 1 -19.25 -12.25 -12.25
966 1 -19.25 -12.25 -8.75
967 1 -19.25 -12.25 -5.25
968 1 -19.25 -12.25 -1.75
969 1 -19.25 -12.25 1.75
970 1 -19.25 -12.25 5.25
971 1 -19.25 -12.25 8.75
972 1 -19.25 -12.25 12.25
973 1 -19.25 -12.25 15.75
974 1 -19.25 -12.25 19.25
975 1 -19.25 -12.25 22.75
976 1 -19.25 -8.75 -26.25
977 1 -19.25 -8.75 -22.75
978 1 -19.25 -8.75 -19.25
979 1 -19.25 -8.75 -15.75
980 1 -19.25 -8.75 -12.25
981 1 -19.25 -8.75 -8.75
982 1 -19.25 -8.75 -5.25
983 1 -19.25 -8.75 -1.75
984 1 -19.25 -8.75 1.75
985 1 -19.25 -8.75 5.25
986 1 -19.25 -8.75 8.75
987 1 -19.25 -8.75 12.25
988 1 -19.25 -8.75 15.75
989 1 -19.25 -8.75 19.25
990 1 -19.25 -8.75 22.75
991 1 -19.25 -5.25 -26.25
992 1 -19.25 -5.25 -22.75
993 1 -19.25 -5.25 -19.25
994 1 -19.25 -5.25 -15.75
995 1 -19.25 -5.25 -12.25
996 1 -19.25 -5.25 -8.75
997 1 -19.25 -5.25 -5.25
998 1 -19.25 -5.25 -1.75
999 1 -19.25 -5.25 1.75
1000 1 -19.25 -5.25 5.25
1001 1 -19.25 -5.25 8.75
1002 1 -19.25 -5.25 12.25
1003 1 -19.25 -5.25 15.75
1004 1 -19.25 -5.25 19.25
1005 1 -19.25 -5.25 22.75
1006 1 -19.25 -1.75 -26.25
1007 1 -19.25 -1.75 -22.75
1008 1 -19.25 -1.75 -19.25
1009 1 -19.25 -1.75 -15.75
1010 1 -19.25 -1.75 -12.25
1011 1 -19.25 -1.75 -8.75
1012 1 -19.25 -1.75 -5.25
1013 1 -19.25 -1.75 -1.75
1014 1 -19.25 -1.75 1.75
1015 1 -19.25 -1.75 5.25
1016 1 -19.25 -1.75 8.75
1017 1 -19.25 -1.75 12.25
1018 1 -19.25 -1.75 15.75
1019 1 -19.25 -1.75 19.25
1020 1 -19.25 -1.75 22.75
1021 1 -19.25 1.75 -26.25
1022 1 -19.25 1.75 -22.75
1023 1 -19.25 1.75 -19.25
1024 1 -19.25 1.75 -15.75
1025 1 -19.25 1.75 -12.25
1026 1 -19.25 1.75 -8.75
1027 1 -19.25 1.75 -5.25
1028 1 -19.25 1.75 -1.75
1029 1 -19.25 1.75 1.75
1030 1 -19.25 1.75 5.25
1031 1 -19.25 1.75 8.75
1032 1 -19.25 1.75 12.25
1033 1 -19.25 1.75 15.75
1034 1 -19.25 1.75 19.25
1035 1 -19.25 1.75 22.75
1036 1 -19.25 5.25 -26.25
1037 1 -19.25 5.25 -22.75
1038 1 -19.25 5.25 -19.25
1039 1 -19.25 5.25 -15.75
1040 1 -19.25 5.25 -12.25
1041 1 -19.25 5.25 -8.75
1042 1 -19.25 5.25 -5.25
1043 1 -19.25 5.25 -1.75
1044 1 -19.25 5.25 1.75
1045 1 -19.25 5.25 5.25
1046 1 -19.25 5.25 8.75
1047 1 -19.25 5.25 12.25
1048 1 -19.25 5.25 15.75
1049 1 -19.25 5.25 19.25
1050 1 -19.25 5.25 22.75
1051 1 -19.25 8.75 -26.25
1052 1 -19.25 8.75 -22.75
1053 1 -19.25 8.75 -19.25
1054 1 -19.25 8.75 -15.75
1055 1 -19.25 8.75 -12.25
1056 1 -19.25 8.75 -8.75
1057 1 -19.25 8.75 -5.25
1058 1 -19.25 8.75 -1.75
1059 1 -19.25 8.75 1.75
1060 1 -19.25 8.75 5.25
1061 1 -19.25 8.75 8.75
1062 1 -19.25 8.75 12.25
1063 1 -19.25 8.75 15.75
1064 1 -19.25 8.75 19.25
1065 1 -19.25 8.75 22.75
1066 1 -19.25 12.25 -26.25
1067 1 -19.25 12.25 -22.75
1068 1 -19.25 12.25 -19.25
1069 1 -19.25 12.25 -15.75
1070 1 -19.25 12.25 -12.25
1071 1 -19.25 12.25 -8.75
1072 1 -19.25 12.25 -5.25
1073 1 -19.25 12.25 -1.75
1074 1 -19.25 12.25 1.75
1075 1 -19.25 12.25 5.25
1076 1 -19.25 12.25 8.75
1077 1 -19.25 12.25 12.25
1078 1 -19.25 12.25 15.75
1079 1 -19.25 12.25 19.25
1080 1 -19.25 12.25 22.75
1081 1 -19.25 15.75 -26.25
1082 1 -19.25 15.75 -22.75
1083 1 -19.25 15.75 -19.25
1084 1 -19.25 15.75 -15.75
1085 1 -19.25 15.75 -12.25
1086 1 -19.25 15.75 -8.75
1087 1 -19.25 15.75 -5.25
1088 1 -19.25 15.75 -1.75
1089 1 -19.25 15.75 1.75
1090 1 -19.25 15.75 5.25
1091 1 -19.25 15.75 8.75
1092 1 -19.25 15.75 12.25
1093 1 -19.25 15.75 15.75
1094 1 -19.25 15.75 19.25
1095 1 -19.25 15.75 22.75
1096 1 -19.25 19.25 -26.25
1097 1 -19.25 19.25 -22.75
1098 1 -19.25 19.25 -19.25
1099 1 -19.25 19.25 -15.75
1100 1 -19.25 19.25 -12.25
1101 1 -19.25 19.25 -8.75
1102 1 -19.25 19.25 -5.25
1103 1 -19.25 19.25 -1.75
1104 1 -19.25 19.25 1.75
1105 1 -19.25 19.25 5.25
1106 1 -19.25 19.25 8.75
1107 1 -19.25 19.25 12.25
1108 1 -19.25 19.25 15.75
1109 1 -19.25 19.25 19.25
1110 1 -19.25 19.25 22.75
1111 1 -19.25 22.75 -26.25
1112 1 -19.25 22.75 -22.75
1113 1 -19.25 22.75 -19.25
1114 1 -19.25 22.75 -15.75
1115 1 -19.25 22.75 -12.25
1116 1 -19.25 22.75 -8.75
1117 1 -19.25 22.75 -5.25
1118 1 -19.25 22.75 -1.75
1119 1 -19.25 22.75 1.75
1120 1 -19.25 22.75 5.25
1121 1 -19.25 22.75 8.75
1122 1 -19.25 22.75 12.25
1123 1 -19.25 22.75 15.75
1124 1 -19.25 22.75 19.25
1125 1 -19.25 22.75 22.75
1126 1 -17.5 -24.5 -24.5
1127 1 -17.5 -24.5 -21.0
1128 1 -17.5 -24.5 -17.5
1129 1 -17.5 -24.5 -14.0
1130 1 -17.5 -24.5 -10.5
1131 1 -17.5 -24.5 -7.0
1132 1 -17.5 -24.5 -3.5
1133 1 -17.5 -24.5 0.0
1134 1 -17.5 -24.5 3.5
1135 1 -17.5 -24.5 7.0
1136 1 -17.5 -24.5 10.5
1137 1 -17.5 -24.5 14.0
1138 1 -17.5 -24.5 17.5
1139 1 -17.5 -24.5 21.0
1140 1 -17.5 -24.5 24.5
1141 1 -17.5 -21.0 -24.5
1142 1 -17.5 -21.0 -21.0
1143 1 -17.5 -21.0 -17.5
1144 1 -17.5 -21.0 -14.0
1145 1 -17.5 -21.0 -10.5
1146 1 -17.5 -21.0 -7.0
1147 1 -17.5 -21.0 -3.5
1148 1 -17.5 -21.0 0.0
1149 1 -17.5 -21.0 3.5
1150 1 -17.5 -21.0 7.0
1151 1 -17.5 -21.0 10.5
1152 1 -17.5 -21.0 14.0
1153 1 -17.5 -21.0 17.5
1154 1 -17.5 -21.0 21.0
1155 1 -17.5 -21.0 24.5
1156 1 -17.5 -17.5 -24.5
1157 1 -17.5 -17.5 -21.0
1158 1 -17.5 -17.5 -17.5
1159 1 -17.5 -17.5 -14.0
1160 1 -17.5 -17.5 -10.5
1161 1 -17.5 -17.5 -7.0
1162 1 -17.5 -17.5 -3.5
1163 1 -17.5 -17.5 0.0
1164 1 -17.5 -17.5 3.5
1165 1 -17.5 -17.5 7.0
1166 1 -17.5 -17.5 10.5
1167 1 -17.5 -17.5 14.0
1168 1 -17.5 -17.5 17.5
1169 1 -17.5 -17.5 21.0
1170 1 -17.5 -17.5 24.5
1171 1 -17.5 -14.0 -24.5
1172 1 -17.5 -14.0 -21.0
1173 1 -17.5 -14.0 -17.5
1174 1 -17.5 -14.0 -14.0
1175 1 -17.5 -14.0 -10.5
1176 1 -17.5 -14.0 -7.0
1177 1 -17.5 -14.0 -3.5
1178 1 -17.5 -14.0 0.0
1179 1 -17.5 -14.0 3.5
1180 1 -17.5 -14.0 7.0
1181 1 -17.5 -14.0 10.5
1182 1 -17.5 -14.0 14.0
1183 1 -17.5 -14.0 17.5
1184 1 -17.5 -14.0 21.0
1185 1 -17.5 -14.0 24.5
1186 1 -17.5 -10.5 -24.5
1187 1 -17.5 -10.5 -21.0
1188 1 -17.5 -10.5 -17.5
1189 1 -17.5 -10.5 -14.0
1190 1 -17.5 -10.5 -10.5
1191 1 -17.5 -10.5 -7.0
1192 1 -17.5 -10.5 -3.5
1193 1 -17.5 -10.5 0.0
1194 1 -17.5 -10.5 3.5
1195 1 -17.5 -10.5 7.0
1196 1 -17.5 -10.5 10.5
1197 1 -17.5 -10.5 14.0
1198 1 -17.5 -10.5 17.5
1199 1 -17.5 -10.5 21.0
1200 1 -17.5 -10.5 24.5
1201 1 -17.5 -7.0 -24.5
1202 1 -17.5 -7.0 -21.0
1203 1 -17.5 -7.0 -17.5
1204 1 -17.5 -7.0 -14.0
1205 1 -17.5 -7.0 -10.5
1206 1 -17.5 -7.0 -7.0
1207 1 -17.5 -7.0 -3.5
1208 1 -17.5 -7.0 0.0
1209 1 -17.5 -7.0 3.5
1210 1 -17.5 -7.0 7.0
1211 1 -17.5 -7.0 10.5
1212 1 -17.5 -7.0 14.0
1213 1 -17.5 -7.0 17.5
1214 1 -17.5 -7.0 21.0
1215 1 -17.5 -7.0 24.5
1216 1 -17.5 -3.5 -24.5
1217 1 -17.5 -3.5 -21.0
1218 1 -17.5 -3.5 -17.5
1219 1 -17.5 -3.5 -14.0
1220 1 -17.5 -3.5 -10.5
1221 1 -17.5 -3.5 -7.0
1222 1 -17.5 -3.5 -3.5
1223 1 -17.5 -3.5 0.0
1224 1 -17.5 -3.5 3.5
1225 1 -17.5 -3.5 7.0
1226 1 -17.5 -3.5 10.5
1227 1 -17.5 -3.5 14.0
1228 1 -17.5 -3.5 17.5
1229 1 -17.5 -3.5 21.0
1230 1 -17.5 -3.5 24.5
1231 1 -17.5 0.0 -24.5
1232 1 -17.5 0.0 -21.0
1233 1 -17.5 0.0 -17.5
1234 1 -17.5 0.0 -14.0
1235 1 -17.5 0.0 -10.5
1236 1 -17.5 0.0 -7.0
1237 1 -17.5 0.0 -3.5
1238 1 -17.5 0.0 0.0
1239 1 -17.5 0.0 3.5
1240 1 -17.5 0.0 7.0
1241 1 -17.5 0.0 10.5
1242 1 -17.5 0.0 14.0
1243 1 -17.5 0.0 17.5
1244 1 -17.5 0.0 21.0
1245 1 -17.5 0.0 24.5
1246 1 -17.5 3.5 -24.5
1247 1 -17.5 3.5 -21.0
1248 1 -17.5 3.5 -17.5
1249 1 -17.5 3.5 -14.0
1250 1 -17.5 3.5 -10.5
1251 1 -17.5 3.5 -7.0
1252 1 -17.5 3.5 -3.5
1253 1 -17.5 3.5 0.0
1254 1 -17.5 3.5 3.5
1255 1 -17.5 3.5 7.0
1256 1 -17.5 3.5 10.5
1257 1 -17.5 3.5 14.0
1258 1 -17.5 3.5 17.5
1259 1 -17.5 3.5 21.0
1260 1 -17.5 3.5 24.5
1261 1 -17.5 7.0 -24.5
1262 1 -17.5 7.0 -21.0
1263 1 -17.5 7.0 -17.5
1264 1 -17.5 7.0 -14.0
1265 1 -17.5 7.0 -10.5
1266 1 -17.5 7.0 -7.0
1267 1 -17.5 7.0 -3.5
1268 1 -17.5 7.0 0.0
1269 1 -17.5 7.0 3.5
1270 1 -17.5 7.0 7.0
1271 1 -17.5 7.0 10.5
1272 1 -17.5 7.0 14.0
1273 1 -17.5 7.0 17.5
1274 1 -17.5 7.0 21.0
1275 1 -17.5 7.0 24.5
1276 1 -17.5 10.5 -24.5
1277 1 -17.5 10.5 -21.0
1278 1 -17.5 10.5 -17.5
1279 1 -17.5 10.5 -14.0
1280 1 -17.5 10.5 -10.5
1281 1 -17.5 10.5 -7.0
1282 1 -17.5 10.5 -3.5
1283 1 -17.5 10.5 0.0
1284 1 -17.5 10.5 3.5
1285 1 -17.5 10.5 7.0
1286 1 -17.5 10.5 10.5
1287 1 -17.5 10.5 14.0
1288 1 -17.5 10.5 17.5
1289 1 -17.5 10.5 21.0
1290 1 -17.5 10.5 24.5
1291 1 -17.5 14.0 -24.5
1292 1 -17.5 14.0 -21.0
1293 1 -17.5 14.0 -17.5
1294 1 -17.5 14.0 -14.0
1295 1 -17.5 14.0 -10.5
1296 1 -17.5 14.0 -7.0
1297 1 -17.5 14.0 -3.5
1298 1 -17.5 14.0 0.0
1299 1 -17.5 14.0 3.5
1300 1 -17.5 14.0 7.0
1301 1 -17.5 14.0 10.5
1302 1 -17.5 14.0 14.0
1303 1 -17.5 14.0 17.5
1304 1 -17.5 14.0 21.0
1305 1 -17.5 14.0 24.5
1306 1 -17.5 17.5 -24.5
1307 1 -17.5 17.5 -21.0
1308 1 -17.5 17.5 -17.5
1309 1 -17.5 17.5 -14.0
1310 1 -17.5 17.5 -10.5
1311 1 -17.5 17.5 -7.0
1312 1 -17.5 17.5 -3.5
1313 1 -17.5 17.5 0.0
1314 1 -17.5 17.5 3.5
1315 1 -17.5 17.5 7.0
1316 1 -17.5 17.5 10.5
1317 1 -17.5 17.5 14.0
1318 1 -17.5 17.5 17.5
1319 1 -17.5 17.5 21.0
1320 1 -17.5 17.5 24.5
1321 1 -17.5 21.0 -24.5
1322 1 -17.5 21.0 -21.0
1323 1 -17.5 21.0 -17.5
1324 1 -17.5 21.0 -14.0
1325 1 -17.5 21.0 -10.5
1326 1 -17.5 21.0 -7.0
1327 1 -17.5 21.0 -3.5
1328 1 -17.5 21.0 0.0
1329 1 -17.5 21.0 3.5
1330 1 -17.5 21.0 7.0
1331 1 -17.5 21.0 10.5
1332 1 -17.5 21.0 14.0
1333 1 -17.5 21.0 17.5
1334 1 -17.5 21.0 21.0
1335 1 -17.5 21.0 24.5
1336 1 -17.5 24.5 -24.5
1337 1 -17.5 24.5 -21.0
1338 1 -17.5 24.5 -17.5
1339 1 -17.5 24.5 -14.0
1340 1 -17.5 24.5 -10.5
1341 1 -17.5 24.5 -7.0
1342 1 -17.5 24.5 -3.5
1343 1 -17.5 24.5 0.0
1344 1 -17.5 24.5 3.5
1345 1 -17.5 24.5 7.0
1346 1 -17.5 24.5 10.5
1347 1 -17.5 24.5 14.0
1348 1 -17.5 24.5 17.5
1349 1 -17.5 24.5 21.0
1350 1 -17.5 24.5 24.5
1351 1 -15.75 -26.25 -26.25
1352 1 -15.75 -26.25 -22.75
1353 1 -15.75 -26.25 -19.25
1354 1 -15.75 -26.25 -15.75
1355 1 -15.75 -26.25 -12.25
1356 1 -15.75 -26.25 -8.75
1357 1 -15.75 -26.25 -5.25
1358 1 -15.75 -26.25 -1.75
1359 1 -15.75 -26.25 1.75
1360 1 -15.75 -26.25 5.25
1361 1 -15.75 -26.25 8.75
1362 1 -15.75 -26.25 12.25
1363 1 -15.75 -26.25 15.75
1364 1 -15.75 -26.25 19.25
1365 1 -15.75 -26.25 22.75
1366 1 -15.75 -22.75 -26.25
1367 1 -15.75 -22.75 -22.75
1368 1 -15.75 -22.75 -19.25
1369 1 -15.75 -22.75 -15.75
1370 1 -15.75 -22.75 -12.25
1371 1 -15.75 -22.75 -8.75
1372 1 -15.75 -22.75 -5.25
1373 1 -15.75 -22.75 -1.75
1374 1 -15.75 -22.75 1.75
1375 1 -15.75 -22.75 5.25
1376 1 -15.75 -22.75 8.75
1377 1 -15.75 -22.75 12.25
1378 1 -15.75 -22.75 15.75
1379 1 -15.75 -22.75 19.25
1380 1 -15.75 -22.75 22.75
1381 1 -15.75 -19.25 -26.25
1382 1 -15.75 -19.25 -22.75
1383 1 -15.75 -19.25 -19.25
1384 1 -15.75 -19.25 -15.75
1385 1 -15.75 -19.25 -12.25
1386 1 -15.75 -19.25 -8.75
1387 1 -15.75 -19.25 -5.25
1388 1 -15.75 -19.25 -1.75
1389 1 -15.75 -19.25 1.75
1390 1 -15.75 -19.25 5.25
1391 1 -15.75 -19.25 8.75
1392 1 -15.75 -19.25 12.25
1393 1 -15.75 -19.25 15.75
1394 1 -15.75 -19.25 19.25
1395 1 -15.75 -19.25 22.75
1396 1 -15.75 -15.75 -26.25
1397 1 -15.75 -15.75 -22.75
1398 1 -15.75 -15.75 -19.25
1399 1 -15.75 -15.75 -15.75
1400 1 -15.75 -15.75 -12.25
1401 1 -15.75 -15.75 -8.75
1402 1 -15.75 -15.75 -5.25
1403 1 -15.75 -15.75 -1.75
1404 1 -15.75 -15.75 1.75
1405 1 -15.75 -15.75 5.25
1406 1 -15.75 -15.75 8.75
1407 1 -15.75 -15.75 12.25
1408 1 -15.75 -15.75 15.75
1409 1 -15.75 -15.75 19.25
1410 1 -15.75 -15.75 22.75
1411 1 -15.75 -12.25 -26.25
1412 1 -15.75 -12.25 -22.75
1413 1 -15.75 -12.25 -19.25
1414 1 -15.75 -12.25 -15.75
1415 1 -15.75 -12.25 -12.25
1416 1 -15.75 -12.25 -8.75
1417 1 -15.75 -12.25 -5.25
1418 1 -15.75 -12.25 -1.75
1419 1 -15.75 -12.25 1.75
1420 1 -15.75 -12.25 5.25
1421 1 -15.75 -12.25 8.75
1422 1 -15.75 -12.25 12.25
1423 1 -15.75 -12.25 15.75
1424 1 -15.75 -12.25 19.25
1425 1 -15.75 -12.25 22.75
1426 1 -15.75 -8.75 -26.25
1427 1 -15.75 -8.75 -22.75
1428 1 -15.75 -8.75 -19.25
1429 1 -15.75 -8.75 -15.75
1430 1 -15.75 -8.75 -12.25
1431 1 -15.75 -8.75 -8.75
1432 1 -15.75 -8.75 -5.25
1433 1 -15.75 -8.75 -1.75
1434 1 -15.75 -8.75 1.75
1435 1 -15.75 -8.75 5.25
1436 1 -15.75 -8.75 8.75
1437 1 -15.75 -8.75 12.25
1438 1 -15.75 -8.75 15.75
1439 1 -15.75 -8.75 19.25
1440 1 -15.75 -8.75 22.75
1441 1 -15.75 -5.25 -26.25
1442 1 -15.75 -5.25 -22.75
1443 1 -15.75 -5.25 -19.25
1444 1 -15.75 -5.25 -15.75
1445 1 -15.75 -5.25 -12.25
1446 1 -15.75 -5.25 -8.75
1447 1 -15.75 -5.25 -5.25
1448 1 -15.75 -5.25 -1.75
1449 1 -15.75 -5.25 1.75
1450 1 -15.75 -5.25 5.25
1451 1 -15.75 -5.25 8.75
1452 1 -15.75 -5.25 12.25
1453 1 -15.75 -5.25 15.75
1454 1 -15.75 -5.25 19.25
1455 1 -15.75 -5.25 22.75
1456 1 -15.75 -1.75 -26.25
1457 1 -15.75 -1.75 -22.75
1458 1 -15.75 -1.75 -19.25
1459 1 -15.75 -1.75 -15.75
1460 1 -15.75 -1.75 -12.25
1461 1 -15.75 -1.75 -8.75
1462 1 -15.75 -1.75 -5.25
1463 1 -15.75 -1.75 -1.75
1464 1 -15.75 -1.75 1.75
1465 1 -15.75 -1.75 5.25
1466 1 -15.75 -1.75 8.75
1467 1 -15.75 -1.75 12.25
1468 1 -15.75 -1.75 15.75
1469 1 -15.75 -1.75 19.25
1470 1 -15.75 -1.75 22.75
1471 1 -15.75 1.75 -26.25
1472 1 -15.75 1.75 -22.75
1473 1 -15.75 1.75 -19.25
1474 1 -15.75 1.75 -15.75
1475 1 -15.75 1.75 -12.25
1476 1 -15.75 1.75 -8.75
1477 1 -15.75 1.75 -5.25
1478 1 -15.75 1.75 -1.75
1479 1 -15.75 1.75 1.75
1480 1 -15.75 1.75 5.25
1481 1 -15.75 1.75 8.75
1482 1 -15.75 1.75 12.25
1483 1 -15.75 1.75 15.75
1484 1 -15.75 1.75 19.25
1485 1 -15.75 1.75 22.75
1486 1 -15.75 5.25 -26.25
1487 1 -15.75 5.25 -22.75
1488 1 -15.75 5.25 -19.25
1489 1 -15.75 5.25 -15.75
1490 1 -15.75 5.25 -12.25
1491 1 -15.75 5.25 -8.75
1492 1 -15.75 5.25 -5.25
1493 1 -15.75 5.25 -1.75
1494 1 -15.75 5.25 1.75
1495 1 -15.75 5.25 5.25
1496 1 -15.75 5.25 8.75
1497 1 -15.75 5.25 12.25
1498 1 -15.75 5.25 15.75
1499 1 -15.75 5.25 19.25
1500 1 -15.75 5.25 22.75
1501 1 -15.75 8.75 -26.25
1502 1 -15.75 8.75 -22.75
1503 1 -15.75 8.75 -19.25
1504 1 -15.75 8.75 -15.75
1505 1 -15.75 8.75 -12.25
1506 1 -15.75 8.75 -8.75
1507 1 -15.75 8.75 -5.25
1508 1 -15.75 8.75 -1.75
1509 1 -15.75 8.75 1.75
1510 1 -15.75 8.75 5.25
1511 1 -15.75 8.75 8.75
1512 1 -15.75 8.75 12.25
1513 1 -15.75 8.75 15.75
1514 1 -15.75 8.75 19.25
1515 1 -15.75 8.75 22.75
1516 1 -15.75 12.25 -26.25
1517 1 -15.75 12.25 -22.75
1518 1 -15.75 12.25 -19.25
1519 1 -15.75 12.25 -15.75
1520 1 -15.75 12.25 -12.25
1521 1 -15.75 12.25 -8.75
1522 1 -15.75 12.25 -5.25
1523 1 -15.75 12.25 -1.75
1524 1 -15.75 12.25 1.75
1525 1 -15.75 12.25 5.25
1526 1 -15.75 12.25 8.75
1527 1 -15.75 12.25 12.25
1528 1 -15.75 12.25 15.75
1529 1 -15.75 12.25 19.25
1530 1 -15.75 12.25 22.75
1531 1 -15.75 15.75 -26.25
1532 1 -15.75 15.75 -22.75
1533 1 -15.75 15.75 -19.25
1534 1 -15.75 15.75 -15.75
1535 1 -15.75 15.75 -12.25
1536 1 -15.75 15.75 -8.75
1537 1 -15.75 15.75 -5.25
1538 1 -15.75 15.75 -1.75
1539 1 -15.75 15.75 1.75
1540 1 -15.75 15.75 5.25
1541 1 -15.75 15.75 8.75
1542 1 -15.75 15.75 12.25
1543 1 -15.75 15.75 15.75
1544 1 -15.75 15.75 19.25
1545 1 -15.75 15.75 22.75
1546 1 -15.75 19.25 -26.25
1547 1 -15.75 19.25 -22.75
1548 1 -15.75 19.25 -19.25
1549 1 -15.75 19.25 -15.75
1550 1 -15.75 19.25 -12.25
1551 1 -15.75 19.25 -8.75
1552 1 -15.75 19.25 -5.25
1553 1 -15.75 19.25 -1.75
1554 1 -15.75 19.25 1.75
1555 1 -15.75 19.25 5.25
1556 1 -15.75 19.25 8.75
1557 1 -15.75 19.25 12.25
1558 1 -15.75 19.25 15.75
1559 1 -15.75 19.25 19.25
1560 1 -15.75 19.25 22.75
1561 1 -15.75 22.75 -26.25
1562 1 -15.75 22.75 -22.75
1563 1 -15.75 22.75 -19.25
1564 1 -15.75 22.75 -15.75
1565 1 -15.75 22.75 -12.25
1566 1 -15.75 22.75 -8.75
1567 1 -15.75 22.75 -5.25
1568 1 -15.75 22.75 -1.75
1569 1 -15.75 22.75 1.75
1570 1 -15.75 22.75 5.25
1571 1 -15.75 22.75 8.75
1572 1 -15.75 22.75 12.25
1573 1 -15.75 22.75 15.75
1574 1 -15.75 22.75 19.25
1575 1 -15.75 22.75 22.75
1576 1 -14.0 -24.5 -24.5
1577 1 -14.0 -24.5 -21.0
1578 1 -14.0 -24.5 -17.5
1579 1 -14.0 -24.5 -14.0
1580 1 -14.0 -24.5 -10.5
1581 1 -14.0 -24.5 -7.0
1582 1 -14.0 -24.5 -3.5
1583 1 -14.0 -24.5 0.0
1584 1 -14.0 -24.5 3.5
1585 1 -14.0 -24.5 7.0
1586 1 -14.0 -24.5 10.5
1587 1 -14.0 -24.5 14.0
1588 1 -14.0 -24.5 17.5
1589 1 -14.0 -24.5 21.0
1590 1 -14.0 -24.5 24.5
1591 1 -14.0 -21.0 -24.5
1592 1 -14.0 -21.0 -21.0
1593 1 -14.0 -21.0 -17.5
1594 1 -14.0 -21.0 -14.0
1595 1 -14.0 -21.0 -10.5
1596 1 -14.0 -21.0 -7.0
1597 1 -14.0 -21.0 -3.5
1598 1 -14.0 -21.0 0.0
1599 1 -14.0 -21.0 3.5
1600 1 -14.0 -21.0 7.0
1601 1 -14.0 -21.0 10.5
1602 1 -14.0 -21.0 14.0
1603 1 -14.0 -21.0 17.5
1604 1 -14.0 -21.0 21.0
1605 1 -14.0 -21.0 24.5
1606 1 -14.0 -17.5 -24.5
1607 1 -14.0 -17.5 -21.0
1608 1 -14.0 -17.5 -17.5
1609 1 -14.0 -17.5 -14.0
1610 1 -14.0 -17.5 -10.5
1611 1 -14.0 -17.5 -7.0
1612 1 -14.0 -17.5 -3.5
1613 1 -14.0 -17.5 0.0
1614 1 -14.0 -17.5 3.5
1615 1 -14.0 -17.5 7.0
1616 1 -14.0 -17.5 10.5
1617 1 -14.0 -17.5 14.0
1618 1 -14.0 -17.5 17.5
1619 1 -14.0 -17.5 21.0
1620 1 -14.0 -17.5 24.5
1621 1 -14.0 -14.0 -24.5
1622 1 -14.0 -14.0 -21.0
1623 1 -14.0 -14.0 -17.5
1624 1 -14.0 -14.0 -14.0
1625 1 -14.0 -14.0 -10.5
1626 1 -14.0 -14.0 -7.0
1627 1 -14.0 -14.0 -3.5
1628 1 -14.0 -14.0 0.0
1629 1 -14.0 -14.0 3.5
1630 1 -14.0 -14.0 7.0
1631 1 -14.0 -14.0 10.5
1632 1 -14.0 -14.0 14.0
1633 1 -14.0 -14.0 17.5
1634 1 -14.0 -14.0 21.0
1635 1 -14.0 -14.0 24.5
1636 1 -14.0 -10.5 -24.5
1637 1 -14.0 -10.5 -21.0
1638 1 -14.0 -10.5 -17.5
1639 1 -14.0 -10.5 -14.0
1640 1 -14.0 -10.5 -10.5
1641 1 -14.0 -10.5 -7.0
1642 1 -14.0 -10.5 -3.5
1643 1 -14.0 -10.5 0.0
1644 1 -14.0 -10.5 3.5
1645 1 -14.0 -10.5 7.0
1646 1 -14.0 -10.5 10.5
1647 1 -14.0 -10.5 14.0
1648 1 -14.0 -10.5 17.5
1649 1 -14.0 -10.5 21.0
1650 1 -14.0 -10.5 24.5
1651 1 -14.0 -7.0 -24.5
1652 1 -14.0 -7.0 -21.0
1653 1 -14.0 -7.0 -17.5
1654 1 -14.0 -7.0 -14.0
1655 1 -14.0 -7.0 -10.5
1656 1 -14.0 -7.0 -7.0
1657 1 -14.0 -7.0 -3.5
1658 1 -14.0 -7.0 0.0
1659 1 -14.0 -7.0 3.5
1660 1 -14.0 -7.0 7.0
1661 1 -14.0 -7.0 10.5
1662 1 -14.0 -7.0 14.0
1663 1 -14.0 -7.0 17.5
1664 1 -14.0 -7.0 21.0
1665 1 -14.0 -7.0 24.5
1666 1 -14.0 -3.5 -24.5
1667 1 -14.0 -3.5 -21.0
1668 1 -14.0 -3.5 -17.5
1669 1 -14.0 -3.5 -14.0
1670 1 -14.0 -3.5 -10.5
1671 1 -14.0 -3.5 -7.0
1672 1 -14.0 -3.5 -3.5
1673 1 -14.0 -3.5 0.0
1674 1 -14.0 -3.5 3.5
1675 1 -14.0 -3.5 7.0
1676 1 -14.0 -3.5 10.5
1677 1 -14.0 -3.5 14.0
1678 1 -14.0 -3.5 17.5
1679 1 -14.0 -3.5 21.0
1680 1 -14.0 -3.5 24.5
1681 1 -14.0 0.0 -24.5
1682 1 -14.0 0.0 -21.0
1683 1 -14.0 0.0 -17.5
1684 1 -14.0 0.0 -14.0
1685 1 -14.0 0.0 -10.5
1686 1 -14.0 0.0 -7.0
1687 1 -14.0 0.0 -3.5
1688 1 -14.0 0.0 0.0
1689 1 -14.0 0.0 3.5
1690 1 -14.0 0.0 7.0
1691 1 -14.0 0.0 10.5
1692 1 -14.0 0.0 14.0
1693 1 -14.0 0.0 17.5
1694 1 -14.0 0.0 21.0
1695 1 -14.0 0.0 24.5
1696 1 -14.0 3.5 -24.5
1697 1 -14.0 3.5 -21.0
1698 1 -14.0 3.5 -17.5
1699 1 -14.0 3.5 -14.0
1700 1 -14.0 3.5 -10.5
1701 1 -14.0 3.5 -7.0
1702 1 -14.0 3.5 -3.5
1703 1 -14.0 3.5 0.0
1704 1 -14.0 3.5 3.5
1705 1 -14.0 3.5 7.0
1706 1 -14.0 3.5 10.5
1707 1 -14.0 3.5 14.0
1708 1 -14.0 3.5 17.5
1709 1 -14.0 3.5 21.0
1710 1 -14.0 3.5 24.5
1711 1 -14.0 7.0 -24.5
1712 1 -14.0 7.0 -21.0
1713 1 -14.0 7.0 -17.5
1714 1 -14.0 7.0 -14.0
1715 1 -14.0 7.0 -10.5
1716 1 -14.0 7.0 -7.0
1717 1 -14.0 7.0 -3.5
1718 1 -14.0 7.0 0.0
1719 1 -14.0 7.0 3.5
1720 1 -14.0 7.0 7.0
1721 1 -14.0 7.0 10.5
1722 1 -14.0 7.0 14.0
1723 1 -14.0 7.0 17.5
1724 1 -14.0 7.0 21.0
1725 1 -14.0 7.0 24.5
1726 1 -14.0 10.5 -24.5
1727 1 -14.0 10.5 -21.0
1728 1 -14.0 10.5 -17.5
1729 1 -14.0 10.5 -14.0
1730 1 -14.0 10.5 -10.5
1731 1 -14.0 10.5 -7.0
1732 1 -14.0 10.5 -3.5
1733 1 -14.0 10.5 0.0
1734 1 -14.0 10.5 3.5
1735 1 -14.0 10.5 7.0
1736 1 -14.0 10.5 10.5
1737 1 -14.0 10.5 14.0
1738 1 -14.0 10.5 17.5
1739 1 -14.0 10.5 21.0
1740 1 -14.0 10.5 24.5
1741 1 -14.0 14.0 -24.5
1742 1 -14.0 14.0 -21.0
1743 1 -14.0 14.0 -17.5
1744 1 -14.0 14.0 -14.0
1745 1 -14.0 14.0 -10.5
1746 1 -14.0 14.0 -7.0
1747 1 -14.0 14.0 -3.5
1748 1 -14.0 14.0 0.0
1749 1 -14.0 14.0 3.5
1750 1 -14.0 14.0 7.0
1751 1 -14.0 14.0 10.5
1752 1 -14.0 14.0 14.0
1753 1 -14.0 14.0 17.5
1754 1 -14.0 14.0 21.0
1755 1 -14.0 14.0 24.5
1756 1 -14.0 17.5 -24.5
1757 1 -14.0 17.5 -21.0
1758 1 -14.0 17.5 -17.5
1759 1 -14.0 17.5 -14.0
1760 1 -14.0 17.5 -10.5
1761 1 -14.0 17.5 -7.0
1762 1 -14.0 17.5 -3.5
1763 1 -14.0 17.5 0.0
1764 1 -14.0 17.5 3.5
1765 1 -14.0 17.5 7.0
1766 1 -14.0 17.5 10.5
1767 1 -14.0 17.5 14.0
1768 1 -14.0 17.5 17.5
1769 1 -14.0 17.5 21.0
1770 1 -14.0 17.5 24.5
1771 1 -14.0 21.0 -24.5
1772 1 -14.0 21.0 -21.0
1773 1 -14.0 21.0 -17.5
1774 1 -14.0 21.0 -14.0
1775 1 -14.0 21.0 -10.5
1776 1 -14.0 21.0 -7.0
1777 1 -14.0 21.0 -3.5
1778 1 -14.0 21.0 0.0
1779 1 -14.0 21.0 3.5
1780 1 -14.0 21.0 7.0
1781 1 -14.0 21.0 10.5
1782 1 -14.0 21.0 14.0
1783 1 -14.0 21.0 17.5
1784 1 -14.0 21.0 21.0
1785 1 -14.0 21.0 24.5
1786 1 -14.0 24.5 -24.5
1787 1 -14.0 24.5 -21.0
1788 1 -14.0 24.5 -17.5
1789 1 -14.0 24.5 -14.0
1790 1 -14.0 24.5 -10.5
1791 1 -14.0 24.5 -7.0
1792 1 -14.0 24.5 -3.5
1793 1 -14.0 24.5 0.0
1794 1 -14.0 24.5 3.5
1795 1 -14.0 24.5 7.0
1796 1 -14.0 24.5 10.5
1797 1 -14.0 24.5 14.0
1798 1 -14.0 24.5 17.5
1799 1 -14.0 24.5 21.0
1800 1 -14.0 24.5 24.5
1801 1 -12.25 -26.25 -26.25
1802 1 -12.25 -26.25 -22.75
1803 1 -12.25 -26.25 -19.25
1804 1 -12.25 -26.25 -15.75
1805 1 -12.25 -26.25 -12.25
1806 1 -12.25 -26.25 -8.75
1807 1 -12.25 -26.25 -5.25
1808 1 -12.25 -26.25 -1.75
1809 1 -12.25 -26.25 1.75
1810 1 -12.25 -26.25 5.25
1811 1 -12.25 -26.25 8.75
1812 1 -12.25 -26.25 12.25
1813 1 -12.25 -26.25 15.75
1814 1 -12.25 -26.25 19.25
1815 1 -12.25 -26.25 22.75
1816 1 -12.25 -22.75 -26.25
1817 1 -12.25 -22.75 -22.75
1818 1 -12.25 -22.75 -19.25
1819 1 -12.25 -22.75 -15.75
1820 1 -12.25 -22.75 -12.25
1821 1 -12.25 -22.75 -8.75
1822 1 -12.25 -22.75 -5.25
1823 1 -12.25 -22.75 -1.75
1824 1 -12.25 -22.75 1.75
1825 1 -12.25 -22.75 5.25
1826 1 -12.25 -22.75 8.75
1827 1 -12.25 -22.75 12.25
1828 1 -12.25 -22.75 15.75
1829 1 -12.25 -22.75 19.25
1830 1 -12.25 -22.75 22.75
1831 1 -12.25 -19.25 -26.25
1832 1 -12.25 -19.25 -22.75
1833 1 -12.25 -19.25 -19.25
1834 1 -12.25 -19.25 -15.75
1835 1 -12.25 -19.25 -12.25
1836 1 -12.25 -19.25 -8.75
1837 1 -12.25 -19.25 -5.25
1838 1 -12.25 -19.25 -1.75
1839 1 -12.25 -19.25 1.75
1840 1 -12.25 -19.25 5.25
1841 1 -12.25 -19.25 8.75
1842 1 -12.25 -19.25 12.25
1843 1 -12.25 -19.25 15.75
1844 1 -12.25 -19.25 19.25
1845 1 -12.25 -19.25 22.75
1846 1 -12.25 -15.75 -26.25
1847 1 -12.25 -15.75 -22.75
1848 1 -12.25 -15.75 -19.25
1849 1 -12.25 -15.75 -15.75
1850 1 -12.25 -15.75 -12.25
1851 1 -12.25 -15.75 -8.75
1852 1 -12.25 -15.75 -5.25
1853 1 -12.25 -15.75 -1.75
1854 1 -12.25 -15.75 1.75
1855 1 -12.25 -15.75 5.25
1856 1 -12.25 -15.75 8.75
1857 1 -12.25 -15.75 12.25
1858 1 -12.25 -15.75 15.75
1859 1 -12.25 -15.75 19.25
1860 1 -12.25 -15.75 22.75
1861 1 -12.25 -12.25 -26.25
1862 1 -12.25 -12.25 -22.75
1863 1 -12.25 -12.25 -19.25
1864 1 -12.25 -12.25 -15.75
1865 1 -12.25 -12.25 -12.25
1866 1 -12.25 -12.25 -8.75
1867 1 -12.25 -12.25 -5.25
1868 1 -12.25 -12.25 -1.75
1869 1 -12.25 -12.25 1.75
1870 1 -12.25 -12.25 5.25
1871 1 -12.25 -12.25 8.75
1872 1 -12.25 -12.25 12.25
1873 1 -12.25 -12.25 15.75
1874 1 -12.25 -12.25 19.25
1875 1 -12.25 -12.25 22.75
1876 1 -12.25 -8.75 -26.25
1877 1 -12.25 -8.75 -22.75
1878 1 -12.25 -8.75 -19.25
1879 1 -12.25 -8.75 -15.75
1880 1 -12.25 -8.75 -12.25
1881 1 -12.25 -8.75 -8.75
1882 1 -12.25 -8.75 -5.25
1883 1 -12.25 -8.75 -1.75
1884 1 -12.25 -8.75 1.75
1885 1 -12.25 -8.75 5.25
1886 1 -12.25 -8.75 8.75
1887 1 -12.25 -8.75 12.25
1888 1 -12.25 -8.75 15.75
1889 1 -12.25 -8.75 19.25
1890 1 -12.25 -8.75 22.75
1891 1 -12.25 -5.25 -26.25
1892 1 -12.25 -5.25 -22.75
1893 1 -12.25 -5.25 -19.25
1894 1 -12.25 -5.25 -15.75
1895 1 -12.25 -5.25 -12.25
1896 1 -12.25 -5.25 -8.75
1897 1 -12.25 -5.25 -5.25
1898 1 -12.25 -5.25 -1.75
1899 1 -12.25 -5.25 1.75
1900 1 -12.25 -5.25 5.25
1901 1 -12.25 -5.25 8.75
1902 1 -12.25 -5.25 12.25
1903 1 -12.25 -5.25 15.75
1904 1 -12.25 -5.25 19.25
1905 1 -12.25 -5.25 22.75
1906 1 -12.25 -1.75 -26.25
1907 1 -12.25 -1.75 -22.75
1908 1 -12.25 -1.75 -19.25
1909 1 -12.25 -1.75 -15.75
1910 1 -12.25 -1.75 -12.25
1911 1 -12.25 -1.75 -8.75
1912 1 -12.25 -1.75 -5.25
1913 1 -12.25 -1.75 -1.75
1914 1 -12.25 -1.75 1.75
1915 1 -12.25 -1.75 5.25
1916 1 -12.25 -1.75 8.75
1917 1 -12.25 -1.75 12.25
1918 1 -12.25 -1.75 15.75
1919 1 -12.25 -1.75 19.25
1920 1 -12.25 -1.75 22.75
1921 1 -12.25 1.75 -26.25
1922 1 -12.25 1.75 -22.75
1923 1 -12.25 1.75 -19.25
1924 1 -12.25 1.75 -15.75
1925 1 -12.25 1.75 -12.25
1926 1 -12.25 1.75 -8.75
1927 1 -12.25 1.75 -5.25
1928 1 -12.25 1.75 -1.75
1929 1 -12.25 1.75 1.75
1930 1 -12.25 1.75 5.25
1931 1 -12.25 1.75 8.75
1932 1 -12.25 1.75 12.25
1933 1 -12.25 1.75 15.75
1934 1 -12.25 1.75 19.25
1935 1 -12.25 1.75 22.75
1936 1 -12.25 5.25 -26.25
1937 1 -12.25 5.25 -22.75
1938 1 -12.25 5.25 -19.25
1939 1 -12.25 5.25 -15.75
1940 1 -12.25 5.25 -12.25
1941 1 -12.25 5.25 -8.75
1942 1 -12.25 5.25 -5.25
1943 1 -12.25 5.25 -1.75
1944 1 -12.25 5.25 1.75
1945 1 -12.25 5.25 5.25
1946 1 -12.25 5.25 8.75
1947 1 -12.25 5.25 12.25
1948 1 -12.25 5.25 15.75
1949 1 -12.25 5.25 19.25
1950 1 -12.25 5.25 22.75
1951 1 -12.25 8.75 -26.25
1952 1 -12.25 8.75 -22.75
1953 1 -12.25 8.75 -19.25
1954 1 -12.25 8.75 -15.75
1955 1 -12.25 8.75 -12.25
1956 1 -12.25 8.75 -8.75
1957 1 -12.25 8.75 -5.25
1958 1 -12.25 8.75 -1.75
1959 1 -12.25 8.75 1.75
1960 1 -12.25 8.75 5.25
1961 1 -12.25 8.75 8.75
1962 1 -12.25 8.75 12.25
1963 1 -12.25 8.75 15.75
1964 1 -12.25 8.75 19.25
1965 1 -12.25 8.75 22.75
1966 1 -12.25 12.25 -26.25
1967 1 -12.25 12.25 -22.75
1968 1 -12.25 12.25 -19.25
1969 1 -12.25 12.25 -15.75
1970 1 -12.25 12.25 -12.25
1971 1 -12.25 12.25 -8.75
1972 1 -12.25 12.25 -5.25
1973 1 -12.25 12.25 -1.75
1974 1 -12.25 12.25 1.75
1975 1 -12.25 12.25 5.25
1976 1 -12.25 12.25 8.75
1977 1 -12.25 12.25 12.25
1978 1 -12.25 12.25 15.75
1979 1 -12.25 12.25 19.25
1980 1 -12.25 12.25 22.75
1981 1 -12.25 15.75 -26.25
1982 1 -12.25 15.75 -22.75
1983 1 -12.25 15.75 -19.25
1984 1 -12.25 15.75 -15.75
1985 1 -12.25 15.75 -12.25
1986 1 -12.25 15.75 -8.75
1987 1 -12.25 15.75 -5.25
1988 1 -12.25 15.75 -1.75
1989 1 -12.25 15.75 1.75
1990 1 -12.25 15.75 5.25
1991 1 -12.25 15.75 8.75
1992 1 -12.25 15.75 12.25
1993 1 -12.25 15.75 15.75
1994 1 -12.25 15.75 19.25
1995 1 -12.25 15.75 22.75
1996 1 -12.25 19.25 -26.25
1997 1 -12.25 19.25 -22.75
1998 1 -12.25 19.25 -19.25
1999 1 -12.25 19.25 -15.75
2000 1 -12.25 19.25 -12.25
2001 1 -12.25 19.25 -8.75
2002 1 -12.25 19.25 -5.25
2003 1 -12.25 19.25 -1.75
2004 1 -12.25 19.25 1.75
2005 1 -12.25 19.25 5.25
2006 1 -12.25 19.25 8.75
2007 1 -12.25 19.25 12.25
2008 1 -12.25 19.25 15.75
2009 1 -12.25 19.25 19.25
2010 1 -12.25 19.25 22.75
2011 1 -12.25 22.75 -26.25
2012 1 -12.25 22.75 -22.75
2013 1 -12.25 22.75 -19.25
2014 1 -12.25 22.75 -15.75
2015 1 -12.25 22.75 -12.25
2016 1 -12.25 22.75 -8.75
2017 1 -12.25 22.75 -5.25
2018 1 -12.25 22.75 -1.75
2019 1 -12.25 22.75 1.75
2020 1 -12.25 22.75 5.25
2021 1 -12.25 22.75 8.75
2022 1 -12.25 22.75 12.25
2023 1 -12.25 22.75 15.75
2024 1 -12.25 22.75 19.25
2025 1 -12.25 22.75 22.75
2026 1 -10.5 -24.5 -24.5
2027 1 -10.5 -24.5 -21.0
2028 1 -10.5 -24.5 -17.5
2029 1 -10.5 -24.5 -14.0
2030 1 -10.5 -24.5 -10.5
2031 1 -10.5 -24.5 -7.0
2032 1 -10.5 -24.5 -3.5
2033 1 -10.5 -24.5 0.0
2034 1 -10.5 -24.5 3.5
2035 1 -10.5 -24.5 7.0
2036 1 -10.5 -24.5 10.5
2037 1 -10.5 -24.5 14.0
2038 1 -10.5 -24.5 17.5
2039 1 -10.5 -24.5 21.0
2040 1 -10.5 -24.5 24.5
2041 1 -10.5 -21.0 -24.5
2042 1 -10.5 -21.0 -21.0
2043 1 -10.5 -21.0 -17.5
2044 1 -10.5 -21.0 -14.0
2045 1 -10.5 -21.0 -10.5
2046 1 -10.5 -21.0 -7.0
2047 1 -10.5 -21.0 -3.5
2048 1 -10.5 -21.0 0.0
2049 1 -10.5 -21.0 3.5
2050 1 -10.5 -21.0 7.0
2051 1 -10.5 -21.0 10.5
2052 1 -10.5 -21.0 14.0
2053 1 -10.5 -21.0 17.5
2054 1 -10.5 -21.0 21.0
2055 1 -10.5 -21.0 24.5
2056 1 -10.5 -17.5 -24.5
2057 1 -10.5 -17.5 -21.0
2058 1 -10.5 -17.5 -17.5
2059 1 -10.5 -17.5 -14.0
2060 1 -10.5 -17.5 -10.5
2061 1 -10.5 -17.5 -7.0
2062 1 -10.5 -17.5 -3.5
2063 1 -10.5 -17.5 0.0
2064 1 -10.5 -17.5 3.5
2065 1 -10.5 -17.5 7.0
2066 1 -10.5 -17.5 10.5
2067 1 -10.5 -17.5 14.0
2068 1 -10.5 -17.5 17.5
2069 1 -10.5 -17.5 21.0
2070 1 -10.5 -17.5 24.5
2071 1 -10.5 -14.0 -24.5
2072 1 -10.5 -14.0 -21.0
2073 1 -10.5 -14.0 -17.5
2074 1 -10.5 -14.0 -14.0
2075 1 -10.5 -14.0 -10.5
2076 1 -10.5 -14.0 -7.0
2077 1 -10.5 -14.0 -3.5
2078 1 -10.5 -14.0 0.0
2079 1 -10.5 -14.0 3.5
2080 1 -10.5 -14.0 7.0
2081 1 -10.5 -14.0 10.5
2082 1 -10.5 -14.0 14.0
2083 1 -10.5 -14.0 17.5
2084 1 -10.5 -14.0 21.0
2085 1 -10.5 -14.0 24.5
2086 1 -10.5 -10.5 -24.5
2087 1 -10.5 -10.5 -21.0
2088 1 -10.5 -10.5 -17.5
2089 1 -10.5 -10.5 -14.0
2090 1 -10.5 -10.5 -10.5
2091 1 -10.5 -10.5 -7.0
2092 1 -10.5 -10.5 -3.5
2093 1 -10.5 -10.5 0.0
2094 1 -10.5 -10.5 3.5
2095 1 -10.5 -10.5 7.0
2096 1 -10.5 -10.5 10.5
2097 1 -10.5 -10.5 14.0
2098 1 -10.5 -10.5 17.5
2099 1 -10.5 -10.5 21.0
2100 1 -10.5 -10.5 24.5
2101 1 -10.5 -7.0 -24.5
2102 1 -10.5 -7.0 -21.0
2103 1 -10.5 -7.0 -17.5
2104 1 -10.5 -7.0 -14.0
2105 1 -10.5 -7.0 -10.5
2106 1 -10.5 -7.0 -7.0
2107 1 -10.5 -7.0 -3.5
2108 1 -10.5 -7.0 0.0
2109 1 -10.5 -7.0 3.5
2110 1 -10.5 -7.0 7.0
2111 1 -10.5 -7.0 10.5
2112 1 -10.5 -7.0 14.0
2113 1 -10.5 -7.0 17.5
2114 1 -10.5 -7.0 21.0
2115 1 -10.5 -7.0 24.5
2116 1 -10.5 -3.5 -24.5
2117 1 -10.5 -3.5 -21.0
2118 1 -10.5 -3.5 -17.5
2119 1 -10.5 -3.5 -14.0
2120 1 -10.5 -3.5 -10.5
2121 1 -10.5 -3.5 -7.0
2122 1 -10.5 -3.5 -3.5
2123 1 -10.5 -3.5 0.0
2124 1 -10.5 -3.5 3.5
2125 1 -10.5 -3.5 7.0
2126 1 -10.5 -3.5 10.5
2127 1 -10.5 -3.5 14.0
2128 1 -10.5 -3.5 17.5
2129 1 -10.5 -3.5 21.0
2130 1 -10.5 -3.5 24.5
2131 1 -10.5 0.0 -24.5
2132 1 -10.5 0.0 -21.0
2133 1 -10.5 0.0 -17.5
2134 1 -10.5 0.0 -14.0
2135 1 -10.5 0.0 -10.5
2136 1 -10.5 0.0 -7.0
2137 1 -10.5 0.0 -3.5
2138 1 -10.5 0.0 0.0
2139 1 -10.5 0.0 3.5
2140 1 -10.5 0.0 7.0
2141 1 -10.5 0.0 10.5
2142 1 -10.5 0.0 14.0
2143 1 -10.5 0.0 17.5
2144 1 -10.5 0.0 21.0
2145 1 -10.5 0.0 24.5
2146 1 -10.5 3.5 -24.5
2147 1 -10.5 3.5 -21.0
2148 1 -10.5 3.5 -17.5
2149 1 -10.5 3.5 -14.0
2150 1 -10.5 3.5 -10.5
2151 1 -10.5 3.5 -7.0
2152 1 -10.5 3.5 -3.5
2153 1 -10.5 3.5 0.0
2154 1 -10.5 3.5 3.5
2155 1 -10.5 3.5 7.0
2156 1 -10.5 3.5 10.5
2157 1 -10.5 3.5 14.0
2158 1 -10.5 3.5 17.5
2159 1 -10.5 3.5 21.0
2160 1 -10.5 3.5 24.5
2161 1 -10.5 7.0 -24.5
2162 1 -10.5 7.0 -21.0
2163 1 -10.5 7.0 -17.5
2164 1 -10.5 7.0 -14.0
2165 1 -10.5 7.0 -10.5
2166 1 -10.5 7.0 -7.0
2167 1 -10.5 7.0 -3.5
2168 1 -10.5 7.0 0.0
2169 1 -10.5 7.0 3.5
2170 1 -10.5 7.0 7.0
2171 1 -10.5 7.0 10.5
2172 1 -10.5 7.0 14.0
2173 1 -10.5 7.0 17.5
2174 1 -10.5 7.0 21.0
2175 1 -10.5 7.0 24.5
2176 1 -10.5 10.5 -24.5
2177 1 -10.5 10.5 -21.0
2178 1 -10.5 10.5 -17.5
2179 1 -10.5 10.5 -14.0
2180 1 -10.5 10.5 -10.5
2181 1 -10.5 10.5 -7.0
2182 1 -10.5 10.5 -3.5
2183 1 -10.5 10.5 0.0
2184 1 -10.5 10.5 3.5
2185 1 -10.5 10.5 7.0
2186 1 -10.5 10.5 10.5
2187 1 -10.5 10.5 14.0
2188 1 -10.5 10.5 17.5
2189 1 -10.5 10.5 21.0
2190 1 -10.5 10.5 24.5
2191 1 -10.5 14.0 -24.5
2192 1 -10.5 14.0 -21.0
2193 1 -10.5 14.0 -17.5
2194 1 -10.5 14.0 -14.0
2195 1 -10.5 14.0 -10.5
2196 1 -10.5 14.0 -7.0
2197 1 -10.5 14.0 -3.5
2198 1 -10.5 14.0 0.0
2199 1 -10.5 14.0 3.5
2200 1 -10.5 14.0 7.0
2201 1 -10.5 14.0 10.5
2202 1 -10.5 14.0 14.0
2203 1 -10.5 14.0 17.5
2204 1 -10.5 14.0 21.0
2205 1 -10.5 14.0 24.5
2206 1 -10.5 17.5 -24.5
2207 1 -10.5 17.5 -21.0
2208 1 -10.5 17.5 -17.5
2209 1 -10.5 17.5 -14.0
2210 1 -10.5 17.5 -10.5
2211 1 -10.5 17.5 -7.0
2212 1 -10.5 17.5 -3.5
2213 1 -10.5 17.5 0.0
2214 1 -10.5 17.5 3.5
2215 1 -10.5 17.5 7.0
2216 1 -10.5 17.5 10.5
2217 1 -10.5 17.5 14.0
2218 1 -10.5 17.5 17.5
2219 1 -10.5 17.5 21.0
2220 1 -10.5 17.5 24.5
2221 1 -10.5 21.0 -24.5
2222 1 -10.5 21.0 -21.0
2223 1 -10.5 21.0 -17.5
2224 1 -10.5 21.0 -14.0
2225 1 -10.5 21.0 -10.5
2226 1 -10.5 21.0 -7.0
2227 1 -10.5 21.0 -3.5
2228 1 -10.5 21.0 0.0
2229 1 -10.5 21.0 3.5
2230 1 -10.5 21.0 7.0
2231 1 -10.5 21.0 10.5
2232 1 -10.5 21.0 14.0
2233 1 -10.5 21.0 17.5
2234 1 -10.5 21.0 21.0
2235 1 -10.5 21.0 24.5
2236 1 -10.5 24.5 -24.5
2237 1 -10.5 24.5 -21.0
2238 1 -10.5 24.5 -17.5
2239 1 -10.5 24.5 -14.0
2240 1 -10.5 24.5 -10.5
2241 1 -10.5 24.5 -7.0
2242 1 -10.5 24.5 -3.5
2243 1 -10.5 24.5 0.0
2244 1 -10.5 24.5 3.5
2245 1 -10.5 24.5 7.0
2246 1 -10.5 24.5 10.5
2247 1 -10.5 24.5 14.0
2248 1 -10.5 24.5 17.5
2249 1 -10.5 24.5 21.0
2250 1 -10.5 24.5 24.5
2251 1 -8.75 -26.25 -26.25
2252 1 -8.75 -26.25 -22.75
2253 1 -8.75 -26.25 -19.25
2254 1 -8.75 -26.25 -15.75
2255 1 -8.75 -26.25 -12.25
2256 1 -8.75 -26.25 -8.75
2257 1 -8.75 -26.25 -5.25
2258 1 -8.75 -26.25 -1.75
2259 1 -8.75 -26.25 1.75
2260 1 -8.75 -26.25 5.25
2261 1 -8.75 -26.25 8.75
2262 1 -8.75 -26.25 12.25
2263 1 -8.75 -26.25 15.75
2264 1 -8.75 -26.25 19.25
2265 1 -8.75 -26.25 22.75
2266 1 -8.75 -22.75 -26.25
2267 1 -8.75 -22.75 -22.75
2268 1 -8.75 -22.75 -19.25
2269 1 -8.75 -22.75 -15.75
2270 1 -8.75 -22.75 -12.25
2271 1 -8.75 -22.75 -8.75
2272 1 -8.75 -22.75 -5.25
2273 1 -8.75 -22.75 -1.75
2274 1 -8.75 -22.75 1.75
2275 1 -8.75 -22.75 5.25
2276 1 -8.75 -22.75 8.75
2277 1 -8.75 -22.75 12.25
2278 1 -8.75 -22.75 15.75
2279 1 -8.75 -22.75 19.25
2280 1 -8.75 -22.75 22.75
2281 1 -8.75 -19.25 -26.25
2282 1 -8.75 -19.25 -22.75
2283 1 -8.75 -19.25 -19.25
2284 1 -8.75 -19.25 -15.75
2285 1 -8.75 -19.25 -12.25
2286 1 -8.75 -19.25 -8.75
2287 1 -8.75 -19.25 -5.25
2288 1 -8.75 -19.25 -1.75
2289 1 -8.75 -19.25 1.75
2290 1 -8.75 -19.25 5.25
2291 1 -8.75 -19.25 8.75
2292 1 -8.75 -19.25 12.25
2293 1 -8.75 -19.25 15.75
2294 1 -8.75 -19.25 19.25
2295 1 -8.75 -19.25 22.75
2296 1 -8.75 -15.75 -26.25
2297 1 -8.75 -15.75 -22.75
2298 1 -8.75 -15.75 -19.25
2299 1 -8.75 -15.75 -15.75
2300 1 -8.75 -15.75 -12.25
2301 1 -8.75 -15.75 -8.75
2302 1 -8.75 -15.75 -5.25
2303 1 -8.75 -15.75 -1.75
2304 1 -8.75 -15.75 1.75
2305 1 -8.75 -15.75 5.25
2306 1 -8.75 -15.75 8.75
2307 1 -8.75 -15.75 12.25
2308 1 -8.75 -15.75 15.75
2309 1 -8.75 -15.75 19.25
2310 1 -8.75 -15.75 22.75
2311 1 -8.75 -12.25 -26.25
2312 1 -8.75 -12.25 -22.75
2313 1 -8.75 -12.25 -19.25
2314 1 -8.75 -12.25 -15.75
2315 1 -8.75 -12.25 -12.25
2316 1 -8.75 -12.25 -8.75
2317 1 -8.75 -12.25 -5.25
2318 1 -8.75 -12.25 -1.75
2319 1 -8.75 -12.25 1.75
2320 1 -8.75 -12.25 5.25
2321 1 -8.75 -12.25 8.75
2322 1 -8.75 -12.25 12.25
2323 1 -8.75 -12.25 15.75
2324 1 -8.75 -12.25 19.25
2325 1 -8.75 -12.25 22.75
2326 1 -8.75 -8.75 -26.25
2327 1 -8.75 -8.75 -22.75
2328 1 -8.75 -8.75 -19.25
2329 1 -8.75 -8.75 -15.75
2330 1 -8.75 -8.75 -12.25
2331 1 -8.75 -8.75 -8.75
2332 1 -8.75 -8.75 -5.25
2333 1 -8.75 -8.75 -1.75
2334 1 -8.75 -8.75 1.75
2335 1 -8.75 -8.75 5.25
2336 1 -8.75 -8.75 8.75
2337 1 -8.75 -8.75 12.25
2338 1 -8.75 -8.75 15.75
2339 1 -8.75 -8.75 19.25
2340 1 -8.75 -8.75 22.75
2341 1 -8.75 -5.25 -26.25
2342 1 -8.75 -5.25 -22.75
2343 1 -8.75 -5.25 -19.25
2344 1 -8.75 -5.25 -15.75
2345 1 -8.75 -5.25 -12.25
2346 1 -8.75 -5.25 -8.75
2347 1 -8.75 -5.25 -5.25
2348 1 -8.75 -5.25 -1.75
2349 1 -8.75 -5.25 1.75
2350 1 -8.75 -5.25 5.25
2351 1 -8.75 -5.25 8.75
2352 1 -8.75 -5.25 12.25
2353 1 -8.75 -5.25 15.75
2354 1 -8.75 -5.25 19.25
2355 1 -8.75 -5.25 22.75
2356 1 -8.75 -1.75 -26.25
2357 1 -8.75 -1.75 -22.75
2358 1 -8.75 -1.75 -19.25
2359 1 -8.75 -1.75 -15.75
2360 1 -8.75 -1.75 -12.25
2361 1 -8.75 -1.75 -8.75
2362 1 -8.75 -1.75 -5.25
2363 1 -8.75 -1.75 -1.75
2364 1 -8.75 -1.75 1.75
2365 1 -8.75 -1.75 5.25
2366 1 -8.75 -1.75 8.75
2367 1 -8.75 -1.75 12.25
2368 1 -8.75 -1.75 15.75
2369 1 -8.75 -1.75 19.25
2370 1 -8.75 -1.75 22.75
2371 1 -8.75 1.75 -26.25
2372 1 -8.75 1.75 -22.75
2373 1 -8.75 1.75 -19.25
2374 1 -8.75 1.75 -15.75
2375 1 -8.75 1.75 -12.25
2376 1 -8.75 1.75 -8.75
2377 1 -8.75 1.75 -5.25
2378 1 -8.75 1.75 -1.75
2379 1 -8.75 1.75 1.75
2380 1 -8.75 1.75 5.25
2381 1 -8.75 1.75 8.75
2382 1 -8.75 1.75 12.25
2383 1 -8.75 1.75 15.75
2384 1 -8.75 1.75 19.25
2385 1 -8.75 1.75 22.75
2386 1 -8.75 5.25 -26.25
2387 1 -8.75 5.25 -22.75
2388 1 -8.75 5.25 -19.25
2389 1 -8.75 5.25 -15.75
2390 1 -8.75 5.25 -12.25
2391 1 -8.75 5.25 -8.75
2392 1 -8.75 5.25 -5.25
2393 1 -8.75 5.25 -1.75
2394 1 -8.75 5.25 1.75
2395 1 -8.75 5.25 5.25
2396 1 -8.75 5.25 8.75
2397 1 -8.75 5.25 12.25
2398 1 -8.75 5.25 15.75
2399 1 -8.75 5.25 19.25
2400 1 -8.75 5.25 22.75
2401 1 -8.75 8.75 -26.25
2402 1 -8.75 8.75 -22.75
2403 1 -8.75 8.75 -19.25
2404 1 -8.75 8.75 -15.75
2405 1 -8.75 8.75 -12.25
2406 1 -8.75 8.75 -8.75
2407 1 -8.75 8.75 -5.25
2408 1 -8.75 8.75 -1.75
2409 1 -8.75 8.75 1.75
2410 1 -8.75 8.75 5.25
2411 1 -8.75 8.75 8.75
2412 1 -8.75 8.75 12.25
2413 1 -8.75 8.75 15.75
2414 1 -8.75 8.75 19.25
2415 1 -8.75 8.75 22.75
2416 1 -8.75 12.25 -26.25
2417 1 -8.75 12.25 -22.75
2418 1 -8.75 12.25 -19.25
2419 1 -8.75 12.25 -15.75
2420 1 -8.75 12.25 -12.25
2421 1 -8.75 12.25 -8.75
2422 1 -8.75 12.25 -5.25
2423 1 -8.75 12.25 -1.75
2424 1 -8.75 12.25 1.75
2425 1 -8.75 12.25 5.25
2426 1 -8.75 12.25 8.75
2427 1 -8.75 12.25 12.25
2428 1 -8.75 12.25 15.75
2429 1 -8.75 12.25 19.25
2430 1 -8.75 12.25 22.75
2431 1 -8.75 15.75 -26.25
2432 1 -8.75 15.75 -22.75
2433 1 -8.75 15.75 -19.25
2434 1 -8.75 15.75 -15.75
2435 1 -8.75 15.75 -12.25
2436 1 -8.75 15.75 -8.75
2437 1 -8.75 15.75 -5.25
2438 1 -8.75 15.75 -1.75
2439 1 -8.75 15.75 1.75
2440 1 -8.75 15.75 5.25
2441 1 -8.75 15.75 8.75
2442 1 -8.75 15.75 12.25
2443 1 -8.75 15.75 15.75
2444 1 -8.75 15.75 19.25
2445 1 -8.75 15.75 22.75
2446 1 -8.75 19.25 -26.25
2447 1 -8.75 19.25 -22.75
2448 1 -8.75 19.25 -19.25
2449 1 -8.75 19.25 -15.75
2450 1 -8.75 19.25 -12.25
2451 1 -8.75 19.25 -8.75
2452 1 -8.75 19.25 -5.25
2453 1 -8.75 19.25 -1.75
2454 1 -8.75 19.25 1.75
2455 1 -8.75 19.25 5.25
2456 1 -8.75 19.25 8.75
2457 1 -8.75 19.25 12.25
2458 1 -8.75 19.25 15.75
2459 1 -8.75 19.25 19.25
2460 1 -8.75 19.25 22.75
2461 1 -8.75 22.75 -26.25
2462 1 -8.75 22.75 -22.75
2463 1 -8.75 22.75 -19.25
2464 1 -8.75 22.75 -15.75
2465 1 -8.75 22.75 -12.25
2466 1 -8.75 22.75 -8.75
2467 1 -8.75 22.75 -5.25
2468 1 -8.75 22.75 -1.75
2469 1 -8.75 22.75 1.75
2470 1 -8.75 22.75 5.25
2471 1 -8.75 22.75 8.75
2472 1 -8.75 22.75 12.25
2473 1 -8.75 22.75 15.75
2474 1 -8.75 22.75 19.25
2475 1 -8.75 22.75 22.75
2476 1 -7.0 -24.5 -24.5
2477 1 -7.0 -24.5 -21.0
2478 1 -7.0 -24.5 -17.5
2479 1 -7.0 -24.5 -14.0
2480 1 -7.0 -24.5 -10.5
2481 1 -7.0 -24.5 -7.0
2482 1 -7.0 -24.5 -3.5
2483 1 -7.0 -24.5 0.0
2484 1 -7.0 -24.5 3.5
2485 1 -7.0 -24.5 7.0
2486 1 -7.0 -24.5 10.5
2487 1 -7.0 -24.5 14.0
2488 1 -7.0 -24.5 17.5
2489 1 -7.0 -24.5 21.0
2490 1 -7.0 -24.5 24.5
2491 1 -7.0 -21.0 -24.5
2492 1 -7.0 -21.0 -21.0
2493 1 -7.0 -21.0 -17.5
2494 1 -7.0 -21.0 -14.0
2495 1 -7.0 -21.0 -10.5
2496 1 -7.0 -21.0 -7.0
2497 1 -7.0 -21.0 -3.5
2498 1 -7.0 -21.0 0.0
2499 1 -7.0 -21.0 3.5
2500 1 -7.0 -21.0 7.0
2501 1 -7.0 -21.0 10.5
2502 1 -7.0 -21.0 14.0
2503 1 -7.0 -21.0 17.5
2504 1 -7.0 -21.0 21.0
2505 1 -7.0 -21.0 24.5
2506 1 -7.0 -17.5 -24.5
2507 1 -7.0 -17.5 -21.0
2508 1 -7.0 -17.5 -17.5
2509 1 -7.0 -17.5 -14.0
2510 1 -7.0 -17.5 -10.5
2511 1 -7.0 -17.5 -7.0
2512 1 -7.0 -17.5 -3.5
2513 1 -7.0 -17.5 0.0
2514 1 -7.0 -17.5 3.5
2515 1 -7.0 -17.5 7.0
2516 1 -7.0 -17.5 10.5
2517 1 -7.0 -17.5 14.0
2518 1 -7.0 -17.5 17.5
2519 1 -7.0 -17.5 21.0
2520 1 -7.0 -17.5 24.5
2521 1 -7.0 -14.0 -24.5
2522 1 -7.0 -14.0 -21.0
2523 1 -7.0 -14.0 -17.5
2524 1 -7.0 -14.0 -14.0
2525 1 -7.0 -14.0 -10.5
2526 1 -7.0 -14.0 -7.0
2527 1 -7.0 -14.0 -3.5
2528 1 -7.0 -14.0 0.0
2529 1 -7.0 -14.0 3.5
2530 1 -7.0 -14.0 7.0
2531 1 -7.0 -14.0 10.5
2532 1 -7.0 -14.0 14.0
2533 1 -7.0 -14.0 17.5
2534 1 -7.0 -14.0 21.0
2535 1 -7.0 -14.0 24.5
2536 1 -7.0 -10.5 -24.5
2537 1 -7.0 -10.5 -21.0
2538 1 -7.0 -10.5 -17.5
2539 1 -7.0 -10.5 -14.0
2540 1 -7.0 -10.5 -10.5
2541 1 -7.0 -10.5 -7.0
2542 1 -7.0 -10.5 -3.5
2543 1 -7.0 -10.5 0.0
2544 1 -7.0 -10.5 3.5
2545 1 -7.0 -10.5 7.0
2546 1 -7.0 -10.5 10.5
2547 1 -7.0 -10.5 14.0
2548 1 -7.0 -10.5 17.5
2549 1 -7.0 -10.5 21.0
2550 1 -7.0 -10.5 24.5
2551 1 -7.0 -7.0 -24.5
2552 1 -7.0 -7.0 -21.0
2553 1 -7.0 -7.0 -17.5
2554 1 -7.0 -7.0 -14.0
2555 1 -7.0 -7.0 -10.5
2556 1 -7.0 -7.0 -7.0
2557 1 -7.0 -7.0 -3.5
2558 1 -7.0 -7.0 0.0
2559 1 -7.0 -7.0 3.5
2560 1 -7.0 -7.0 7.0
2561 1 -7.0 -7.0 10.5
2562 1 -7.0 -7.0 14.0
2563 1 -7.0 -7.0 17.5
2564 1 -7.0 -7.0 21.0
2565 1 -7.0 -7.0 24.5
2566 1 -7.0 -3.5 -24.5
2567 1 -7.0 -3.5 -21.0
2568 1 -7.0 -3.5 -17.5
2569 1 -7.0 -3.5 -14.0
2570 1 -7.0 -3.5 -10.5
2571 1 -7.0 -3.5 -7.0
2572 1 -7.0 -3.5 -3.5
2573 1 -7.0 -3.5 0.0
2574 1 -7.0 -3.5 3.5
2575 1 -7.0 -3.5 7.0
2576 1 -7.0 -3.5 10.5
2577 1 -7.0 -3.5 14.0
2578 1 -7.0 -3.5 17.5
2579 1 -7.0 -3.5 21.0
2580 1 -7.0 -3.5 24.5
2581 1 -7.0 0.0 -24.5
2582 1 -7.0 0.0 -21.0
2583 1 -7.0 0.0 -17.5
2584 1 -7.0 0.0 -14.0
2585 1 -7.0 0.0 -10.5
2586 1 -7.0 0.0 -7.0
2587 1 -7.0 0.0 -3.5
2588 1 -7.0 0.0 0.0
2589 1 -7.0 0.0 3.5
2590 1 -7.0 0.0 7.0
2591 1 -7.0 0.0 10.5
2592 1 -7.0 0.0 14.0
2593 1 -7.0 0.0 17.5
2594 1 -7.0 0.0 21.0
2595 1 -7.0 0.0 24.5
2596 1 -7.0 3.5 -24.5
2597 1 -7.0 3.5 -21.0
2598 1 -7.0 3.5 -17.5
2599 1 -7.0 3.5 -14.0
2600 1 -7.0 3.5 -10.5
2601 1 -7.0 3.5 -7.0
2602 1 -7.0 3.5 -3.5
2603 1 -7.0 3.5 0.0
2604 1 -7.0 3.5 3.5
2605 1 -7.0 3.5 7.0
2606 1 -7.0 3.5 10.5
2607 1 -7.0 3.5 14.0
2608 1 -7.0 3.5 17.5
2609 1 -7.0 3.5 21.0
2610 1 -7.0 3.5 24.5
2611 1 -7.0 7.0 -24.5
2612 1 -7.0 7.0 -21.0
2613 1 -7.0 7.0 -17.5
2614 1 -7.0 7.0 -14.0
2615 1 -7.0 7.0 -10.5
2616 1 -7.0 7.0 -7.0
2617 1 -7.0 7.0 -3.5
2618 1 -7.0 7.0 0.0
2619 1 -7.0 7.0 3.5
2620 1 -7.0 7.0 7.0
2621 1 -7.0 7.0 10.5
2622 1 -7.0 7.0 14.0
2623 1 -7.0 7.0 17.5
2624 1 -7.0 7.0 21.0
2625 1 -7.0 7.0 24.5
2626 1 -7.0 10.5 -24.5
2627 1 -7.0 10.5 -21.0
2628 1 -7.0 10.5 -17.5
2629 1 -7.0 10.5 -14.0
2630 1 -7.0 10.5 -10.5
2631 1 -7.0 10.5 -7.0
2632 1 -7.0 10.5 -3.5
2633 1 -7.0 10.5 0.0
2634 1 -7.0 10.5 3.5
2635 1 -7.0 10.5 7.0
2636 1 -7.0 10.5 10.5
2637 1 -7.0 10.5 14.0
2638 1 -7.0 10.5 17.5
2639 1 -7.0 10.5 21.0
2640 1 -7.0 10.5 24.5
2641 1 -7.0 14.0 -24.5
2642 1 -7.0 14.0 -21.0
2643 1 -7.0 14.0 -17.5
2644 1 -7.0 14.0 -14.0
2645 1 -7.0 14.0 -10.5
2646 1 -7.0 14.0 -7.0
2647 1 -7.0 14.0 -3.5
2648 1 -7.0 14.0 0.0
2649 1 -7.0 14.0 3.5
2650 1 -7.0 14.0 7.0
2651 1 -7.0 14.0 10.5
2652 1 -7.0 14.0 14.0
2653 1 -7.0 14.0 17.5
2654 1 -7.0 14.0 21.0
2655 1 -7.0 14.0 24.5
2656 1 -7.0 17.5 -24.5
2657 1 -7.0 17.5 -21.0
2658 1 -7.0 17.5 -17.5
2659 1 -7.0 17.5 -14.0
2660 1 -7.0 17.5 -10.5
2661 1 -7.0 17.5 -7.0
2662 1 -7.0 17.5 -3.5
2663 1 -7.0 17.5 0.0
2664 1 -7.0 17.5 3.5
2665 1 -7.0 17.5 7.0
2666 1 -7.0 17.5 10.5
2667 1 -7.0 17.5 14.0
2668 1 -7.0 17.5 17.5
2669 1 -7.0 17.5 21.0
2670 1 -7.0 17.5 24.5
2671 1 -7.0 21.0 -24.5
2672 1 -7.0 21.0 -21.0
2673 1 -7.0 21.0 -17.5
2674 1 -7.0 21.0 -14.0
2675 1 -7.0 21.0 -10.5
2676 1 -7.0 21.0 -7.0
2677 1 -7.0 21.0 -3.5
2678 1 -7.0 21.0 0.0
2679 1 -7.0 21.0 3.5
2680 1 -7.0 21.0 7.0
2681 1 -7.0 21.0 10.5
2682 1 -7.0 21.0 14.0
2683 1 -7.0 21.0 17.5
2684 1 -7.0 21.0 21.0
2685 1 -7.0 21.0 24.5
2686 1 -7.0 24.5 -24.5
2687 1 -7.0 24.5 -21.0
2688 1 -7.0 24.5 -17.5
2689 1 -7.0 24.5 -14.0
2690 1 -7.0 24.5 -10.5
2691 1 -7.0 24.5 -7.0
2692 1 -7.0 24.5 -3.5
2693 1 -7.0 24.5 0.0
2694 1 -7.0 24.5 3.5
2695 1 -7.0 24.5 7.0
2696 1 -7.0 24.5 10.5
2697 1 -7.0 24.5 14.0
2698 1 -7.0 24.5 17.5
2699 1 -7.0 24.5 21.0
2700 1 -7.0 24.5 24.5
2701 1 -5.25 -26.25 -26.25
2702 1 -5.25 -26.25 -22.75
2703 1 -5.25 -26.25 -19.25
2704 1 -5.25 -26.25 -15.75
2705 1 -5.25 -26.25 -12.25
2706 1 -5.25 -26.25 -8.75
2707 1 -5.25 -26.25 -5.25
2708 1 -5.25 -26.25 -1.75
2709 1 -5.25 -26.25 1.75
2710 1 -5.25 -26.25 5.25
2711 1 -5.25 -26.25 8.75
2712 1 -5.25 -26.25 12.25
2713 1 -5.25 -26.25 15.75
2714 1 -5.25 -26.25 19.25
2715 1 -5.25 -26.25 22.75
2716 1 -5.25 -22.75 -26.25
2717 1 -5.25 -22.75 -22.75
2718 1 -5.25 -22.75 -19.25
2719 1 -5.25 -22.75 -15.75
2720 1 -5.25 -22.75 -12.25
2721 1 -5.25 -22.75 -8.75
2722 1 -5.25 -22.75 -5.25
2723 1 -5.25 -22.75 -1.75
2724 1 -5.25 -22.75 1.75
2725 1 -5.25 -22.75 5.25
2726 1 -5.25 -22.75 8.75
2727 1 -5.25 -22.75 12.25
2728 1 -5.25 -22.75 15.75
2729 1 -5.25 -22.75 19.25
2730 1 -5.25 -22.75 22.75
2731 1 -5.25 -19.25 -26.25
2732 1 -5.25 -19.25 -22.75
2733 1 -5.25 -19.25 -19.25
2734 1 -5.25 -19.25 -15.75
2735 1 -5.25 -19.25 -12.25
2736 1 -5.25 -19.25 -8.75
2737 1 -5.25 -19.25 -5.25
2738 1 -5.25 -19.25 -1.75
2739 1 -5.25 -19.25 1.75
2740 1 -5.25 -19.25 5.25
2741 1 -5.25 -19.25 8.75
2742 1 -5.25 -19.25 12.25
2743 1 -5.25 -19.25 15.75
2744 1 -5.25 -19.25 19.25
2745 1 -5.25 -19.25 22.75
2746 1 -5.25 -15.75 -26.25
2747 1 -5.25 -15.75 -22.75
2748 1 -5.25 -15.75 -19.25
2749 1 -5.25 -15.75 -15.75
2750 1 -5.25 -15.75 -12.25
2751 1 -5.25 -15.75 -8.75
2752 1 -5.25 -15.75 -5.25
2753 1 -5.25 -15.75 -1.75
2754 1 -5.25 -15.75 1.75
2755 1 -5.25 -15.75 5.25
2756 1 -5.25 -15.75 8.75
2757 1 -5.25 -15.75 12.25
2758 1 -5.25 -15.75 15.75
2759 1 -5.25 -15.75 19.25
2760 1 -5.25 -15.75 22.75
2761 1 -5.25 -12.25 -26.25
2762 1 -5.25 -12.25 -22.75
2763 1 -5.25 -12.25 -19.25
2764 1 -5.25 -12.25 -15.75
2765 1 -5.25 -12.25 -12.25
2766 1 -5.25 -12.25 -8.75
2767 1 -5.25 -12.25 -5.25
2768 1 -5.25 -12.25 -1.75
2769 1 -5.25 -12.25 1.75
2770 1 -5.25 -12.25 5.25
2771 1 -5.25 -12.25 8.75
2772 1 -5.25 -12.25 12.25
2773 1 -5.25 -12.25 15.75
2774 1 -5.25 -12.25 19.25
2775 1 -5.25 -12.25 22.75
2776 1 -5.25 -8.75 -26.25
2777 1 -5.25 -8.75 -22.75
2778 1 -5.25 -8.75 -19.25
2779 1 -5.25 -8.75 -15.75
2780 1 -5.25 -8.75 -12.25
2781 1 -5.25 -8.75 -8.75
2782 1 -5.25 -8.75 -5.25
2783 1 -5.25 -8.75 -1.75
2784 1 -5.25 -8.75 1.75
2785 1 -5.25 -8.75 5.25
2786 1 -5.25 -8.75 8.75
2787 1 -5.25 -8.75 12.25
2788 1 -5.25 -8.75 15.75
2789 1 -5.25 -8.75 19.25
2790 1 -5.25 -8.75 22.75
2791 1 -5.25 -5.25 -26.25
2792 1 -5.25 -5.25 -22.75
2793 1 -5.25 -5.25 -19.25
2794 1 -5.25 -5.25 -15.75
2795 1 -5.25 -5.25 -12.25
2796 1 -5.25 -5.25 -8.75
2797 1 -5.25 -5.25 -5.25
2798 1 -5.25 -5.25 -1.75
2799 1 -5.25 -5.25 1.75
2800 1 -5.25 -5.25 5.25
2801 1 -5.25 -5.25 8.75
2802 1 -5.25 -5.25 12.25
2803 1 -5.25 -5.25 15.75
2804 1 -5.25 -5.25 19.25
2805 1 -5.25 -5.25 22.75
2806 1 -5.25 -1.75 -26.25
2807 1 -5.25 -1.75 -22.75
2808 1 -5.25 -1.75 -19.25
2809 1 -5.25 -1.75 -15.75
2810 1 -5.25 -1.75 -12.25
2811 1 -5.25 -1.75 -8.75
2812 1 -5.25 -1.75 -5.25
2813 1 -5.25 -1.75 -1.75
2814 1 -5.25 -1.75 1.75
2815 1 -5.25 -1.75 5.25
2816 1 -5.25 -1.75 8.75
2817 1 -5.25 -1.75 12.25
2818 1 -5.25 -1.75 15.75
2819 1 -5.25 -1.75 19.25
2820 1 -5.25 -1.75 22.75
2821 1 -5.25 1.75 -26.25
2822 1 -5.25 1.75 -22.75
2823 1 -5.25 1.75 -19.25
2824 1 -5.25 1.75 -15.75
2825 1 -5.25 1.75 -12.25
2826 1 -5.25 1.75 -8.75
2827 1 -5.25 1.75 -5.25
2828 1 -5.25 1.75 -1.75
2829 1 -5.25 1.75 1.75
2830 1 -5.25 1.75 5.25
2831 1 -5.25 1.75 8.75
2832 1 -5.25 1.75 12.25
2833 1 -5.25 1.75 15.75
2834 1 -5.25 1.75 19.25
2835 1 -5.25 1.75 22.75
2836 1 -5.25 5.25 -26.25
2837 1 -5.25 5.25 -22.75
2838 1 -5.25 5.25 -19.25
2839 1 -5.25 5.25 -15.75
2840 1 -5.25 5.25 -12.25
2841 1 -5.25 5.25 -8.75
2842 1 -5.25 5.25 -5.25
2843 1 -5.25 5.25 -1.75
2844 1 -5.25 5.25 1.75
2845 1 -5.25 5.25 5.25
2846 1 -5.25 5.25 8.75
2847 1 -5.25 5.25 12.25
2848 1 -5.25 5.25 15.75
2849 1 -5.25 5.25 19.25
2850 1 -5.25 5.25 22.75
2851 1 -5.25 8.75 -26.25
2852 1 -5.25 8.75 -22.75
2853 1 -5.25 8.75 -19.25
2854 1 -5.25 8.75 -15.75
2855 1 -5.25 8.75 -12.25
2856 1 -5.25 8.75 -8.75
2857 1 -5.25 8.75 -5.25
2858 1 -5.25 8.75 -1.75
2859 1 -5.25 8.75 1.75
2860 1 -5.25 8.75 5.25
2861 1 -5.25 8.75 8.75
2862 1 -5.25 8.75 12.25
2863 1 -5.25 8.75 15.75
2864 1 -5.25 8.75 19.25
2865 1 -5.25 8.75 22.75
2866 1 -5.25 12.25 -26.25
2867 1 -5.25 12.25 -22.75
2868 1 -5.25 12.25 -19.25
2869 1 -5.25 12.25 -15.75
2870 1 -5.25 12.25 -12.25
2871 1 -5.25 12.25 -8.75
2872 1 -5.25 12.25 -5.25
2873 1 -5.25 12.25 -1.75
2874 1 -5.25 12.25 1.75
2875 1 -5.25 12.25 5.25
2876 1 -5.25 12.25 8.75
2877 1 -5.25 12.25 12.25
2878 1 -5.25 12.25 15.75
2879 1 -5.25 12.25 19.25
2880 1 -5.25 12.25 22.75
2881 1 -5.25 15.75 -26.25
2882 1 -5.25 15.75 -22.75
2883 1 -5.25 15.75 -19.25
2884 1 -5.25 15.75 -15.75
2885 1 -5.25 15.75 -12.25
2886 1 -5.25 15.75 -8.75
2887 1 -5.25 15.75 -5.25
2888 1 -5.25 15.75 -1.75
2889 1 -5.25 15.75 1.75
2890 1 -5.25 15.75 5.25
2891 1 -5.25 15.75 8.75
2892 1 -5.25 15.75 12.25
2893 1 -5.25 15.75 15.75
2894 1 -5.25 15.75 19.25
2895 1 -5.25 15.75 22.75
2896 1 -5.25 19.25 -26.25
2897 1 -5.25 19.25 -22.75
2898 1 -5.25 19.25 -19.25
2899 1 -5.25 19.25 -15.75
2900 1 -5.25 19.25 -12.25
2901 1 -5.25 19.25 -8.75
2902 1 -5.25 19.25 -5.25
2903 1 -5.25 19.25 -1.75
2904 1 -5.25 19.25 1.75
2905 1 -5.25 19.25 5.25
2906 1 -5.25 19.25 8.75
2907 1 -5.25 19.25 12.25
2908 1 -5.25 19.25 15.75
2909 1 -5.25 19.25 19.25
2910 1 -5.25 19.25 22.75
2911 1 -5.25 22.75 -26.25
2912 1 -5.25 22.75 -22.75
2913 1 -5.25 22.75 -19.25
2914 1 -5.25 22.75 -15.75
2915 1 -5.25 22.75 -12.25
2916 1 -5.25 22.75 -8.75
2917 1 -5.25 22.75 -5.25
2918 1 -5.25 22.75 -1.75
2919 1 -5.25 22.75 1.75
2920 1 -5.25 22.75 5.25
2921 1 -5.25 22.75 8.75
2922 1 -5.25 22.75 12.25
2923 1 -5.25 22.75 15.75
2924 1 -5.25 22.75 19.25
2925 1 -5.25 22.75 22.75
2926 1 -3.5 -24.5 -24.5
2927 1 -3.5 -24.5 -21.0
2928 1 -3.5 -24.5 -17.5
2929 1 -3.5 -24.5 -14.0
2930 1 -3.5 -24.5 -10.5
2931 1 -3.5 -24.5 -7.0
2932 1 -3.5 -24.5 -3.5
2933 1 -3.5 -24.5 0.0
2934 1 -3.5 -24.5 3.5
2935 1 -3.5 -24.5 7.0
2936 1 -3.5 -24.5 10.5
2937 1 -3.5 -24.5 14.0
2938 1 -3.5 -24.5 17.5
2939 1 -3.5 -24.5 21.0
2940 1 -3.5 -24.5 24.5
2941 1 -3.5 -21.0 -24.5
2942 1 -3.5 -21.0 -21.0
2943 1 -3.5 -21.0 -17.5
2944 1 -3.5 -21.0 -14.0
2945 1 -3.5 -21.0 -10.5
2946 1 -3.5 -21.0 -7.0
2947 1 -3.5 -21.0 -3.5
2948 1 -3.5 -21.0 0.0
2949 1 -3.5 -21.0 3.5
2950 1 -3.5 -21.0 7.0
2951 1 -3.5 -21.0 10.5
2952 1 -3.5 -21.0 14.0
2953 1 -3.5 -21.0 17.5
2954 1 -3.5 -21.0 21.0
2955 1 -3.5 -21.0 24.5
2956 1 -3.5 -17.5 -24.5
2957 1 -3.5 -17.5 -21.0
2958 1 -3.5 -17.5 -17.5
2959 1 -3.5 -17.5 -14.0
2960 1 -3.5 -17.5 -10.5
2961 1 -3.5 -17.5 -7.0
2962 1 -3.5 -17.5 -3.5
2963 1 -3.5 -17.5 0.0
2964 1 -3.5 -17.5 3.5
2965 1 -3.5 -17.5 7.0
2966 1 -3.5 -17.5 10.5
2967 1 -3.5 -17.5 14.0
2968 1 -3.5 -17.5 17.5
2969 1 -3.5 -17.5 21.0
2970 1 -3.5 -17.5 24.5
2971 1 -3.5 -14.0 -24.5
2972 1 -3.5 -14.0 -21.0
2973 1 -3.5 -14.0 -17.5
2974 1 -3.5 -14.0 -14.0
2975 1 -3.5 -14.0 -10.5
2976 1 -3.5 -14.0 -7.0
2977 1 -3.5 -14.0 -3.5
2978 1 -3.5 -14.0 0.0
2979 1 -3.5 -14.0 3.5
2980 1 -3.5 -14.0 7.0
2981 1 -3.5 -14.0 10.5
2982 1 -3.5 -14.0 14.0
2983 1 -3.5 -14.0 17.5
2984 1 -3.5 -14.0 21.0
2985 1 -3.5 -14.0 24.5
2986 1 -3.5 -10.5 -24.5
2987 1 -3.5 -10.5 -21.0
2988 1 -3.5 -10.5 -17.5
2989 1 -3.5 -10.5 -14.0
2990 1 -3.5 -10.5 -10.5
2991 1 -3.5 -10.5 -7.0
2992 1 -3.5 -10.5 -3.5
2993 1 -3.5 -10.5 0.0
2994 1 -3.5 -10.5 3.5
2995 1 -3.5 -10.5 7.0
2996 1 -3.5 -10.5 10.5
2997 1 -3.5 -10.5 14.0
2998 1 -3.5 -10.5 17.5
2999 1 -3.5 -10.5 21.0
3000 1 -3.5 -10.5 24.5
3001 1 -3.5 -7.0 -24.5
3002 1 -3.5 -7.0 -21.0
3003 1 -3.5 -7.0 -17.5
3004 1 -3.5 -7.0 -14.0
3005 1 -3.5 -7.0 -10.5
3006 1 -3.5 -7.0 -7.0
3007 1 -3.5 -7.0 -3.5
3008 1 -3.5 -7.0 0.0
3009 1 -3.5 -7.0 3.5
3010 1 -3.5 -7.0 7.0
3011 1 -3.5 -7.0 10.5
3012 1 -3.5 -7.0 14.0
3013 1 -3.5 -7.0 17.5
3014 1 -3.5 -7.0 21.0
3015 1 -3.5 -7.0 24.5
3016 1 -3.5 -3.5 -24.5
3017 1 -3.5 -3.5 -21.0
3018 1 -3.5 -3.5 -17.5
3019 1 -3.5 -3.5 -14.0
3020 1 -3.5 -3.5 -10.5
3021 1 -3.5 -3.5 -7.0
3022 1 -3.5 -3.5 -3.5
3023 1 -3.5 -3.5 0.0
3024 1 -3.5 -3.5 3.5
3025 1 -3.5 -3.5 7.0
3026 1 -3.5 -3.5 10.5
3027 1 -3.5 -3.5 14.0
3028 1 -3.5 -3.5 17.5
3029 1 -3.5 -3.5 21.0
3030 1 -3.5 -3.5 24.5
3031 1 -3.5 0.0 -24.5
3032 1 -3.5 0.0 -21.0
3033 1 -3.5 0.0 -17.5
3034 1 -3.5 0.0 -14.0
3035 1 -3.5 0.0 -10.5
3036 1 -3.5 0.0 -7.0
3037 1 -3.5 0.0 -3.5
3038 1 -3.5 0.0 0.0
3039 1 -3.5 0.0 3.5
3040 1 -3.5 0.0 7.0
3041 1 -3.5 0.0 10.5
3042 1 -3.5 0.0 14.0
3043 1 -3.5 0.0 17.5
3044 1 -3.5 0.0 21.0
3045 1 -3.5 0.0 24.5
3046 1 -3.5 3.5 -24.5
3047 1 -3.5 3.5 -21.0
3048 1 -3.5 3.5 -17.5
3049 1 -3.5 3.5 -14.0
3050 1 -3.5 3.5 -10.5
3051 1 -3.5 3.5 -7.0
3052 1 -3.5 3.5 -3.5
3053 1 -3.5 3.5 0.0
3054 1 -3.5 3.5 3.5
3055 1 -3.5 3.5 7.0
3056 1 -3.5 3.5 10.5
3057 1 -3.5 3.5 14.0
3058 1 -3.5 3.5 17.5
3059 1 -3.5 3.5 21.0
3060 1 -3.5 3.5 24.5
3061 1 -3.5 7.0 -24.5
3062 1 -3.5 7.0 -21.0
3063 1 -3.5 7.0 -17.5
3064 1 -3.5 7.0 -14.0
3065 1 -3.5 7.0 -10.5
3066 1 -3.5 7.0 -7.0
3067 1 -3.5 7.0 -3.5
3068 1 -3.5 7.0 0.0
3069 1 -3.5 7.0 3.5
3070 1 -3.5 7.0 7.0
3071 1 -3.5 7.0 10.5
3072 1 -3.5 7.0 14.0
3073 1 -3.5 7.0 17.5
3074 1 -3.5 7.0 21.0
3075 1 -3.5 7.0 24.5
3076 1 -3.5 10.5 -24.5
3077 1 -3.5 10.5 -21.0
3078 1 -3.5 10.5 -17.5
3079 1 -3.5 10.5 -14.0
3080 1 -3.5 10.5 -10.5
3081 1 -3.5 10.5 -7.0
3082 1 -3.5 10.5 -3.5
3083 1 -3.5 10.5 0.0
3084 1 -3.5 10.5 3.5
3085 1 -3.5 10.5 7.0
3086 1 -3.5 10.5 10.5
3087 1 -3.5 10.5 14.0
3088 1 -3.5 10.5 17.5
3089 1 -3.5 10.5 21.0
3090 1 -3.5 10.5 24.5
3091 1 -3.5 14.0 -24.5
3092 1 -3.5 14.0 -21.0
3093 1 -3.5 14.0 -17.5
3094 1 -3.5 14.0 -14.0
3095 1 -3.5 14.0 -10.5
3096 1 -3.5 14.0 -7.0
3097 1 -3.5 14.0 -3.5
3098 1 -3.5 14.0 0.0
3099 1 -3.5 14.0 3.5
3100 1 -3.5 14.0 7.0
3101 1 -3.5 14.0 10.5
3102 1 -3.5 14.0 14.0
3103 1 -3.5 14.0 17.5
3104 1 -3.5 14.0 21.0
3105 1 -3.5 14.0 24.5
3106 1 -3.5 17.5 -24.5
3107 1 -3.5 17.5 -21.0
3108 1 -3.5 17.5 -17.5
3109 1 -3.5 17.5 -14.0
3110 1 -3.5 17.5 -10.5
3111 1 -3.5 17.5 -7.0
3112 1 -3.5 17.5 -3.5
3113 1 -3.5 17.5 0.0
3114 1 -3.5 17.5 3.5
3115 1 -3.5 17.5 7.0
3116 1 -3.5 17.5 10.5
3117 1 -3.5 17.5 14.0
3118 1 -3.5 17.5 17.5
3119 1 -3.5 17.5 21.0
3120 1 -3.5 17.5 24.5
3121 1 -3.5 21.0 -24.5
3122 1 -3.5 21.0 -21.0
3123 1 -3.5 21.0 -17.5
3124 1 -3.5 21.0 -14.0
3125 1 -3.5 21.0 -10.5
3126 1 -3.5 21.0 -7.0
3127 1 -3.5 21.0 -3.5
3128 1 -3.5 21.0 0.0
3129 1 -3.5 21.0 3.5
3130 1 -3.5 21.0 7.0
3131 1 -3.5 21.0 10.5
3132 1 -3.5 21.0 14.0
3133 1 -3.5 21.0 17.5
3134 1 -3.5 21.0 21.0
3135 1 -3.5 21.0 24.5
3136 1 -3.5 24.5 -24.5
3137 1 -3.5 24.5 -21.0
3138 1 -3.5 24.5 -17.5
3139 1 -3.5 24.5 -14.0
3140 1 -3.5 24.5 -10.5
3141 1 -3.5 24.5 -7.0
3142 1 -3.5 24.5 -3.5
3143 1 -3.5 24.5 0.0
3144 1 -3.5 24.5 3.5
3145 1 -3.5 24.5 7.0
3146 1 -3.5 24.5 10.5
3147 1 -3.5 24.5 14.0
3148 1 -3.5 24.5 17.5
3149 1 -3.5 24.5 21.0
3150 1 -3.5 24.5 24.5
3151 1 -1.75 -26.25 -26.25
3152 1 -1.75 -26.25 -22.75
3153 1 -1.75 -26.25 -19.25
3154 1 -1.75 -26.25 -15.75
3155 1 -1.75 -26.25 -12.25
3156 1 -1.75 -26.25 -8.75
3157 1 -1.75 -26.25 -5.25
3158 1 -1.75 -26.25 -1.75
3159 1 -1.75 -26.25 1.75
3160 1 -1.75 -26.25 5.25
3161 1 -1.75 -26.25 8.75
3162 1 -1.75 -26.25 12.25
3163 1 -1.75 -26.25 15.75
3164 1 -1.75 -26.25 19.25
3165 1 -1.75 -26.25 22.75
3166 1 -1.75 -22.75 -26.25
3167 1 -1.75 -22.75 -22.75
3168 1 -1.75 -22.75 -19.25
3169 1 -1.75 -22.75 -15.75
3170 1 -1.75 -22.75 -12.25
3171 1 -1.75 -22.75 -8.75
3172 1 -1.75 -22.75 -5.25
3173 1 -1.75 -22.75 -1.75
3174 1 -1.75 -22.75 1.75
3175 1 -1.75 -22.75 5.25
3176 1 -1.75 -22.75 8.75
3177 1 -1.75 -22.75 12.25
3178 1 -1.75 -22.75 15.75
3179 1 -1.75 -22.75 19.25
3180 1 -1.75 -22.75 22.75
3181 1 -1.75 -19.25 -26.25
3182 1 -1.75 -19.25 -22.75
3183 1 -1.75 -19.25 -19.25
3184 1 -1.75 -19.25 -15.75
3185 1 -1.75 -19.25 -12.25
3186 1 -1.75 -19.25 -8.75
3187 1 -1.75 -19.25 -5.25
3188 1 -1.75 -19.25 -1.75
3189 1 -1.75 -19.25 1.75
3190 1 -1.75 -19.25 5.25
3191 1 -1.75 -19.25 8.75
3192 1 -1.75 -19.25 12.25
3193 1 -1.75 -19.25 15.75
3194 1 -1.75 -19.25 19.25
3195 1 -1.75 -19.25 22.75
3196 1 -1.75 -15.75 -26.25
3197 1 -1.75 -15.75 -22.75
3198 1 -1.75 -15.75 -19.25
3199 1 -1.75 -15.75 -15.75
3200 1 -1.75 -15.75 -12.25
3201 1 -1.75 -15.75 -8.75
3202 1 -1.75 -15.75 -5.25
3203 1 -1.75 -15.75 -1.75
3204 1 -1.75 -15.75 1.75
3205 1 -1.75 -15.75 5.25
3206 1 -1.75 -15.75 8.75
3207 1 -1.75 -15.75 12.25
3208 1 -1.75 -15.75 15.75
3209 1 -1.75 -15.75 19.25
3210 1 -1.75 -15.75 22.75
3211 1 -1.75 -12.25 -26.25
3212 1 -1.75 -12.25 -22.75
3213 1 -1.75 -12.25 -19.25
3214 1 -1.75 -12.25 -15.75
3215 1 -1.75 -12.25 -12.25
3216 1 -1.75 -12.25 -8.75
3217 1 -1.75 -12.25 -5.25
3218 1 -1.75 -12.25 -1.75
3219 1 -1.75 -12.25 1.75
3220 1 -1.75 -12.25 5.25
3221 1 -1.75 -12.25 8.75
3222 1 -1.75 -12.25 12.25
3223 1 -1.75 -12.25 15.75
3224 1 -1.75 -12.25 19.25
3225 1 -1.75 -12.25 22.75
3226 1 -1.75 -8.75 -26.25
3227 1 -1.75 -8.75 -22.75
3228 1 -1.75 -8.75 -19.25
3229 1 -1.75 -8.75 -15.75
3230 1 -1.75 -8.75 -12.25
3231 1 -1.75 -8.75 -8.75
3232 1 -1.75 -8.75 -5.25
3233 1 -1.75 -8.75 -1.75
3234 1 -1.75 -8.75 1.75
3235 1 -1.75 -8.75 5.25
3236 1 -1.75 -8.75 8.75
3237 1 -1.75 -8.75 12.25
3238 1 -1.75 -8.75 15.75
3239 1 -1.75 -8.75 19.25
3240 1 -1.75 -8.75 22.75
3241 1 -1.75 -5.25 -26.25
3242 1 -1.75 -5.25 -22.75
3243 1 -1.75 -5.25 -19.25
3244 1 -1.75 -5.25 -15.75
3245 1 -1.75 -5.25 -12.25
3246 1 -1.75 -5.25 -8.75
3247 1 -1.75 -5.25 -5.25
3248 1 -1.75 -5.25 -1.75
3249 1 -1.75 -5.25 1.75
3250 1 -1.75 -5.25 5.25
3251 1 -1.75 -5.25 8.75
3252 1 -1.75 -5.25 12.25
3253 1 -1.75 -5.25 15.75
3254 1 -1.75 -5.25 19.25
3255 1 -1.75 -5.25 22.75
3256 1 -1.75 -1.75 -26.25
3257 1 -1.75 -1.75 -22.75
3258 1 -1.75 -1.75 -19.25
3259 1 -1.75 -1.75 -15.75
3260 1 -1.75 -1.75 -12.25
3261 1 -1.75 -1.75 -8.75
3262 1 -1.75 -1.75 -5.25
3263 1 -1.75 -1.75 -1.75
3264 1 -1.75 -1.75 1.75
3265 1 -1.75 -1.75 5.25
3266 1 -1.75 -1.75 8.75
3267 1 -1.75 -1.75 12.25
3268 1 -1.75 -1.75 15.75
3269 1 -1.75 -1.75 19.25
3270 1 -1.75 -1.75 22.75
3271 1 -1.75 1.75 -26.25
3272 1 -1.75 1.75 -22.75
3273 1 -1.75 1.75 -19.25
3274 1 -1.75 1.75 -15.75
3275 1 -1.75 1.75 -12.25
3276 1 -1.75 1.75 -8.75
3277 1 -1.75 1.75 -5.25
3278 1 -1.75 1.75 -1.75
3279 1 -1.75 1.75 1.75
3280 1 -1.75 1.75 5.25
3281 1 -1.75 1.75 8.75
3282 1 -1.75 1.75 12.25
3283 1 -1.75 1.75 15.75
3284 1 -1.75 1.75 19.25
3285 1 -1.75 1.75 22.75
3286 1 -1.75 5.25 -26.25
3287 1 -1.75 5.25 -22.75
3288 1 -1.75 5.25 -19.25
3289 1 -1.75 5.25 -15.75
3290 1 -1.75 5.25 -12.25
3291 1 -1.75 5.25 -8.75
3292 1 -1.75 5.25 -5.25
3293 1 -1.75 5.25 -1.75
3294 1 -1.75 5.25 1.75
3295 1 -1.75 5.25 5.25
3296 1 -1.75 5.25 8.75
3297 1 -1.75 5.25 12.25
3298 1 -1.75 5.25 15.75
3299 1 -1.75 5.25 19.25
3300 1 -1.75 5.25 22.75
3301 1 -1.75 8.75 -26.25
3302 1 -1.75 8.75 -22.75
3303 1 -1.75 8.75 -19.25
3304 1 -1.75 8.75 -15.75
3305 1 -1.75 8.75 -12.25
3306 1 -1.75 8.75 -8.75
3307 1 -1.75 8.75 -5.25
3308 1 -1.75 8.75 -1.75
3309 1 -1.75 8.75 1.75
3310 1 -1.75 8.75 5.25
3311 1 -1.75 8.75 8.75
3312 1 -1.75 8.75 12.25
3313 1 -1.75 8.75 15.75
3314 1 -1.75 8.75 19.25
3315 1 -1.75 8.75 22.75
3316 1 -1.75 12.25 -26.25
3317 1 -1.75 12.25 -22.75
3318 1 -1.75 12.25 -19.25
3319 1 -1.75 12.25 -15.75
3320 1 -1.75 12.25 -12.25
3321 1 -1.75 12.25 -8.75
3322 1 -1.75 12.25 -5.25
3323 1 -1.75 12.25 -1.75
3324 1 -1.75 12.25 1.75
3325 1 -1.75 12.25 5.25
3326 1 -1.75 12.25 8.75
3327 1 -1.75 12.25 12.25
3328 1 -1.75 12.25 15.75
3329 1 -1.75 12.25 19.25
3330 1 -1.75 12.25 22.75
3331 1 -1.75 15.75 -26.25
3332 1 -1.75 15.75 -22.75
3333 1 -1.75 15.75 -19.25
3334 1 -1.75 15.75 -15.75
3335 1 -1.75 15.75 -12.25
3336 1 -1.75 15.75 -8.75
3337 1 -1.75 15.75 -5.25
3338 1 -1.75 15.75 -1.75
3339 1 -1.75 15.75 1.75
3340 1 -1.75 15.75 5.25
3341 1 -1.75 15.75 8.75
3342 1 -1.75 15.75 12.25
3343 1 -1.75 15.75 15.75
3344 1 -1.75 15.75 19.25
3345 1 -1.75 15.75 22.75
3346 1 -1.75 19.25 -26.25
3347 1 -1.75 19.25 -22.75
3348 1 -1.75 19.25 -19.25
3349 1 -1.75 19.25 -15.75
3350 1 -1.75 19.25 -12.25
3351 1 -1.75 19.25 -8.75
3352 1 -1.75 19.25 -5.25
3353 1 -1.75 19.25 -1.75
3354 1 -1.75 19.25 1.75
3355 1 -1.75 19.25 5.25
3356 1 -1.75 19.25 8.75
3357 1 -1.75 19.25 12.25
3358 1 -1.75 19.25 15.75
3359 1 -1.75 19.25 19.25
3360 1 -1.75 19.25 22.75
3361 1 -1.75 22.75 -26.25
3362 1 -1.75 22.75 -22.75
3363 1 -1.75 22.75 -19.25
3364 1 -1.75 22.75 -15.75
3365 1 -1.75 22.75 -12.25
3366 1 -1.75 22.75 -8.75
3367 1 -1.75 22.75 -5.25
3368 1 -1.75 22.75 -1.75
3369 1 -1.75 22.75 1.75
3370 1 -1.75 22.75 5.25
3371 1 -1.75 22.75 8.75
3372 1 -1.75 22.75 12.25
3373 1 -1.75 22.75 15.75
3374 1 -1.75 22.75 19.25
3375 1 -1.75 22.75 22.75
3376 1 0.0 -24.5 -24.5
3377 1 0.0 -24.5 -21.0
3378 1 0.0 -24.5 -17.5
3379 1 0.0 -24.5 -14.0
3380 1 0.0 -24.5 -10.5
3381 1 0.0 -24.5 -7.0
3382 1 0.0 -24.5 -3.5
3383 1 0.0 -24.5 0.0
3384 1 0.0 -24.5 3.5
3385 1 0.0 -24.5 7.0
3386 1 0.0 -24.5 10.5
3387 1 0.0 -24.5 14.0
3388 1 0.0 -24.5 17.5
3389 1 0.0 -24.5 21.0
3390 1 0.0 -24.5 24.5
3391 1 0.0 -21.0 -24.5
3392 1 0.0 -21.0 -21.0
3393 1 0.0 -21.0 -17.5
3394 1 0.0 -21.0 -14.0
3395 1 0.0 -21.0 -10.5
3396 1 0.0 -21.0 -7.0
3397 1 0.0 -21.0 -3.5
3398 1 0.0 -21.0 0.0
3399 1 0.0 -21.0 3.5
3400 1 0.0 -21.0 7.0
3401 1 0.0 -21.0 10.5
3402 1 0.0 -21.0 14.0
3403 1 0.0 -21.0 17.5
3404 1 0.0 -21.0 21.0
3405 1 0.0 -21.0 24.5
3406 1 0.0 -17.5 -24.5
3407 1 0.0 -17.5 -21.0
3408 1 0.0 -17.5 -17.5
3409 1 0.0 -17.5 -14.0
3410 1 0.0 -17.5 -10.5
3411 1 0.0 -17.5 -7.0
3412 1 0.0 -17.5 -3.5
3413 1 0.0 -17.5 0.0
3414 1 0.0 -17.5 3.5
3415 1 0.0 -17.5 7.0
3416 1 0.0 -17.5 10.5
3417 1 0.0 -17.5 14.0
3418 1 0.0 -17.5 17.5
3419 1 0.0 -17.5 21.0
3420 1 0.0 -17.5 24.5
3421 1 0.0 -14.0 -24.5
3422 1 0.0 -14.0 -21.0
3423 1 0.0 -14.0 -17.5
3424 1 0.0 -14.0 -14.0
3425 1 0.0 -14.0 -10.5
3426 1 0.0 -14.0 -7.0
3427 1 0.0 -14.0 -3.5
3428 1 0.0 -14.0 0.0
3429 1 0.0 -14.0 3.5
3430 1 0.0 -14.0 7.0
3431 1 0.0 -14.0 10.5
3432 1 0.0 -14.0 14.0
3433 1 0.0 -14.0 17.5
3434 1 0.0 -14.0 21.0
3435 1 0.0 -14.0 24.5
3436 1 0.0 -10.5 -24.5
3437 1 0.0 -10.5 -21.0
3438 1 0.0 -10.5 -17.5
3439 1 0.0 -10.5 -14.0
3440 1 0.0 -10.5 -10.5
3441 1 0.0 -10.5 -7.0
3442 1 0.0 -10.5 -3.5
3443 1 0.0 -10.5 0.0
3444 1 0.0 -10.5 3.5
3445 1 0.0 -10.5 7.0
3446 1 0.0 -10.5 10.5
3447 1 0.0 -10.5 14.0
3448 1 0.0 -10.5 17.5
3449 1 0.0 -10.5 21.0
3450 1 0.0 -10.5 24.5
3451 1 0.0 -7.0 -24.5
3452 1 0.0 -7.0 -21.0
3453 1 0.0 -7.0 -17.5
3454 1 0.0 -7.0 -14.0
3455 1 0.0 -7.0 -10.5
3456 1 0.0 -7.0 -7.0
3457 1 0.0 -7.0 -3.5
3458 1 0.0 -7.0 0.0
3459 1 0.0 -7.0 3.5
3460 1 0.0 -7.0 7.0
3461 1 0.0 -7.0 10.5
3462 1 0.0 -7.0 14.0
3463 1 0.0 -7.0 17.5
3464 1 0.0 -7.0 21.0
3465 1 0.0 -7.0 24.5
3466 1 0.0 -3.5 -24.5
3467 1 0.0 -3.5 -21.0
3468 1 0.0 -3.5 -17.5
3469 1 0.0 -3.5 -14.0
3470 1 0.0 -3.5 -10.5
3471 1 0.0 -3.5 -7.0
3472 1 0.0 -3.5 -3.5
3473 1 0.0 -3.5 0.0
3474 1 0.0 -3.5 3.5
3475 1 0.0 -3.5 7.0
3476 1 0.0 -3.5 10.5
3477 1 0.0 -3.5 14.0
3478 1 0.0 -3.5 17.5
3479 1 0.0 -3.5 21.0
3480 1 0.0 -3.5 24.5
3481 1 0.0 0.0 -24.5
3482 1 0.0 0.0 -21.0
3483 1 0.0 0.0 -17.5
3484 1 0.0 0.0 -14.0
3485 1 0.0 0.0 -10.5
3486 1 0.0 0.0 -7.0
3487 1 0.0 0.0 -3.5
3488 1 0.0 0.0 0.0
3489 1 0.0 0.0 3.5
3490 1 0.0 0.0 7.0
3491 1 0.0 0.0 10.5
3492 1 0.0 0.0 14.0
3493 1 0.0 0.0 17.5
3494 1 0.0 0.0 21.0
3495 1 0.0 0.0 24.5
3496 1 0.0 3.5 -24.5
3497 1 0.0 3.5 -21.0
3498 1 0.0 3.5 -17.5
3499 1 0.0 3.5 -14.0
3500 1 0.0 3.5 -10.5
3501 1 0.0 3.5 -7.0
3502 1 0.0 3.5 -3.5
3503 1 0.0 3.5 0.0
3504 1 0.0 3.5 3.5
3505 1 0.0 3.5 7.0
3506 1 0.0 3.5 10.5
3507 1 0.0 3.5 14.0
3508 1 0.0 3.5 17.5
3509 1 0.0 3.5 21.0
3510 1 0.0 3.5 24.5
3511 1 0.0 7.0 -24.5
3512 1 0.0 7.0 -21.0
3513 1 0.0 7.0 -17.5
3514 1 0.0 7.0 -14.0
3515 1 0.0 7.0 -10.5
3516 1 0.0 7.0 -7.0
3517 1 0.0 7.0 -3.5
3518 1 0.0 7.0 0.0
3519 1 0.0 7.0 3.5
3520 1 0.0 7.0 7.0
3521 1 0.0 7.0 10.5
3522 1 0.0 7.0 14.0
3523 1 0.0 7.0 17.5
3524 1 0.0 7.0 21.0
3525 1 0.0 7.0 24.5
3526 1 0.0 10.5 -24.5
3527 1 0.0 10.5 -21.0
3528 1 0.0 10.5 -17.5
3529 1 0.0 10.5 -14.0
3530 1 0.0 10.5 -10.5
3531 1 0.0 10.5 -7.0
3532 1 0.0 10.5 -3.5
3533 1 0.0 10.5 0.0
3534 1 0.0 10.5 3.5
3535 1 0.0 10.5 7.0
3536 1 0.0 10.5 10.5
3537 1 0.0 10.5 14.0
3538 1 0.0 10.5 17.5
3539 1 0.0 10.5 21.0
3540 1 0.0 10.5 24.5
3541 1 0.0 14.0 -24.5
3542 1 0.0 14.0 -21.0
3543 1 0.0 14.0 -17.5
3544 1 0.0 14.0 -14.0
3545 1 0.0 14.0 -10.5
3546 1 0.0 14.0 -7.0
3547 1 0.0 14.0 -3.5
3548 1 0.0 14.0 0.0
3549 1 0.0 14.0 3.5
3550 1 0.0 14.0 7.0
3551 1 0.0 14.0 10.5
3552 1 0.0 14.0 14.0
3553 1 0.0 14.0 17.5
3554 1 0.0 14.0 21.0
3555 1 0.0 14.0 24.5
3556 1 0.0 17.5 -24.5
3557 1 0.0 17.5 -21.0
3558 1 0.0 17.5 -17.5
3559 1 0.0 17.5 -14.0
3560 1 0.0 17.5 -10.5
3561 1 0.0 17.5 -7.0
3562 1 0.0 17.5 -3.5
3563 1 0.0 17.5 0.0
3564 1 0.0 17.5 3.5
3565 1 0.0 17.5 7.0
3566 1 0.0 17.5 10.5
3567 1 0.0 17.5 14.0
3568 1 0.0 17.5 17.5
3569 1 0.0 17.5 21.0
3570 1 0.0 17.5 24.5
3571 1 0.0 21.0 -24.5
3572 1 0.0 21.0 -21.0
3573 1 0.0 21.0 -17.5
3574 1 0.0 21.0 -14.0
3575 1 0.0 21.0 -10.5
3576 1 0.0 21.0 -7.0
3577 1 0.0 21.0 -3.5
3578 1 0.0 21.0 0.0
3579 1 0.0 21.0 3.5
3580 1 0.0 21.0 7.0
3581 1 0.0 21.0 10.5
3582 1 0.0 21.0 14.0
3583 1 0.0 21.0 17.5
3584 1 0.0 21.0 21.0
3585 1 0.0 21.0 24.5
3586 1 0.0 24.5 -24.5
3587 1 0.0 24.5 -21.0
3588 1 0.0 24.5 -17.5
3589 1 0.0 24.5 -14.0
3590 1 0.0 24.5 -10.5
3591 1 0.0 24.5 -7.0
3592 1 0.0 24.5 -3.5
3593 1 0.0 24.5 0.0
3594 1 0.0 24.5 3.5
3595 1 0.0 24.5 7.0
3596 1 0.0 24.5 10.5
3597 1 0.0 24.5 14.0
3598 1 0.0 24.5 17.5
3599 1 0.0 24.5 21.0
3600 1 0.0 24.5 24.5
3601 1 1.75 -26.25 -26.25
3602 1 1.75 -26.25 -22.75
3603 1 1.75 -26.25 -19.25
3604 1 1.75 -26.25 -15.75
3605 1 1.75 -26.25 -12.25
3606 1 1.75 -26.25 -8.75
3607 1 1.75 -26.25 -5.25
3608 1 1.75 -26.25 -1.75
3609 1 1.75 -26.25 1.75
3610 1 1.75 -26.25 5.25
3611 1 1.75 -26.25 8.75
3612 1 1.75 -26.25 12.25
3613 1 1.75 -26.25 15.75
3614 1 1.75 -26.25 19.25
3615 1 1.75 -26.25 22.75
3616 1 1.75 -22.75 -26.25
3617 1 1.75 -22.75 -22.75
3618 1 1.75 -22.75 -19.25
3619 1 1.75 -22.75 -15.75
3620 1 1.75 -22.75 -12.25
3621 1 1.75 -22.75 -8.75
3622 1 1.75 -22.75 -5.25
3623 1 1.75 -22.75 -1.75
3624 1 1.75 -22.75 1.75
3625 1 1.75 -22.75 5.25
3626 1 1.75 -22.75 8.75
3627 1 1.75 -22.75 12.25
3628 1 1.75 -22.75 15.75
3629 1 1.75 -22.75 19.25
3630 1 1.75 -22.75 22.75
3631 1 1.75 -19.25 -26.25
3632 1 1.75 -19.25 -22.75
3633 1 1.75 -19.25 -19.25
3634 1 1.75 -19.25 -15.75
3635 1 1.75 -19.25 -12.25
3636 1 1.75 -19.25 -8.75
3637 1 1.75 -19.25 -5.25
3638 1 1.75 -19.25 -1.75
3639 1 1.75 -19.25 1.75
3640 1 1.75 -19.25 5.25
3641 1 1.75 -19.25 8.75
3642 1 1.75 -19.25 12.25
3643 1 1.75 -19.25 15.75
3644 1 1.75 -19.25 19.25
3645 1 1.75 -19.25 22.75
3646 1 1.75 -15.75 -26.25
3647 1 1.75 -15.75 -22.75
3648 1 1.75 -15.75 -19.25
3649 1 1.75 -15.75 -15.75
3650 1 1.75 -15.75 -12.25
3651 1 1.75 -15.75 -8.75
3652 1 1.75 -15.75 -5.25
3653 1 1.75 -15.75 -1.75
3654 1 1.75 -15.75 1.75
3655 1 1.75 -15.75 5.25
3656 1 1.75 -15.75 8.75
3657 1 1.75 -15.75 12.25
3658 1 1.75 -15.75 15.75
3659 1 1.75 -15.75 19.25
3660 1 1.75 -15.75 22.75
3661 1 1.75 -12.25 -26.25
3662 1 1.75 -12.25 -22.75
3663 1 1.75 -12.25 -19.25
3664 1 1.75 -12.25 -15.75
3665 1 1.75 -12.25 -12.25
3666 1 1.75 -12.25 -8.75
3667 1 1.75 -12.25 -5.25
3668 1 1.75 -12.25 -1.75
3669 1 1.75 -12.25 1.75
3670 1 1.75 -12.25 5.25
3671 1 1.75 -12.25 8.75
3672 1 1.75 -12.25 12.25
3673 1 1.75 -12.25 15.75
3674 1 1.75 -12.25 19.25
3675 1 1.75 -12.25 22.75
3676 1 1.75 -8.75 -26.25
3677 1 1.75 -8.75 -22.75
3678 1 1.75 -8.75 -19.25
3679 1 1.75 -8.75 -15.75
3680 1 1.75 -8.75 -12.25
3681 1 1.75 -8.75 -8.75
3682 1 1.75 -8.75 -5.25
3683 1 1.75 -8.75 -1.75
3684 1 1.75 -8.75 1.75
3685 1 1.75 -8.75 5.25
3686 1 1.75 -8.75 8.75
3687 1 1.75 -8.75 12.25
3688 1 1.75 -8.75 15.75
3689 1 1.75 -8.75 19.25
3690 1 1.75 -8.75 22.75
3691 1 1.75 -5.25 -26.25
3692 1 1.75 -5.25 -22.75
3693 1 1.75 -5.25 -19.25
3694 1 1.75 -5.25 -15.75
3695 1 1.75 -5.25 -12.25
3696 1 1.75 -5.25 -8.75
3697 1 1.75 -5.25 -5.25
3698 1 1.75 -5.25 -1.75
3699 1 1.75 -5.25 1.75
3700 1 1.75 -5.25 5.25
3701 1 1.75 -5.25 8.75
3702 1 1.75 -5.25 12.25
3703 1 1.75 -5.25 15.75
3704 1 1.75 -5.25 19.25
3705 1 1.75 -5.25 22.75
3706 1 1.75 -1.75 -26.25
3707 1 1.75 -1.75 -22.75
3708 1 1.75 -1.75 -19.25
3709 1 1.75 -1.75 -15.75
3710 1 1.75 -1.75 -12.25
3711 1 1.75 -1.75 -8.75
3712 1 1.75 -1.75 -5.25
3713 1 1.75 -1.75 -1.75
3714 1 1.75 -1.75 1.75
3715 1 1.75 -1.75 5.25
3716 1 1.75 -1.75 8.75
3717 1 1.75 -1.75 12.25
3718 1 1.75 -1.75 15.75
3719 1 1.75 -1.75 19.25
3720 1 1.75 -1.75 22.75
3721 1 1.75 1.75 -26.25
3722 1 1.75 1.75 -22.75
3723 1 1.75 1.75 -19.25
3724 1 1.75 1.75 -15.75
3725 1 1.75 1.75 -12.25
3726 1 1.75 1.75 -8.75
3727 1 1.75 1.75 -5.25
3728 1 1.75 1.75 -1.75
3729 1 1.75 1.75 1.75
3730 1 1.75 1.75 5.25
3731 1 1.75 1.75 8.75
3732 1 1.75 1.75 12.25
3733 1 1.75 1.75 15.75
3734 1 1.75 1.75 19.25
3735 1 1.75 1.75 22.75
3736 1 1.75 5.25 -26.25
3737 1 1.75 5.25 -22.75
3738 1 1.75 5.25 -19.25
3739 1 1.75 5.25 -15.75
3740 1 1.75 5.25 -12.25
3741 1 1.75 5.25 -8.75
3742 1 1.75 5.25 -5.25
3743 1 1.75 5.25 -1.75
3744 1 1.75 5.25 1.75
3745 1 1.75 5.25 5.25
3746 1 1.75 5.25 8.75
3747 1 1.75 5.25 12.25
3748 1 1.75 5.25 15.75
3749 1 1.75 5.25 19.25
3750 1 1.75 5.25 22.75
3751 1 1.75 8.75 -26.25
3752 1 1.75 8.75 -22.75
3753 1 1.75 8.75 -19.25
3754 1 1.75 8.75 -15.75
3755 1 1.75 8.75 -12.25
3756 1 1.75 8.75 -8.75
3757 1 1.75 8.75 -5.25
3758 1 1.75 8.75 -1.75
3759 1 1.75 8.75 1.75
3760 1 1.75 8.75 5.25
3761 1 1.75 8.75 8.75
3762 1 1.75 8.75 12.25
3763 1 1.75 8.75 15.75
3764 1 1.75 8.75 19.25
3765 1 1.75 8.75 22.75
3766 1 1.75 12.25 -26.25
3767 1 1.75 12.25 -22.75
3768 1 1.75 12.25 -19.25
3769 1 1.75 12.25 -15.75
3770 1 1.75 12.25 -12.25
3771 1 1.75 12.25 -8.75
3772 1 1.75 12.25 -5.25
3773 1 1.75 12.25 -1.75
3774 1 1.75 12.25 1.75
3775 1 1.75 12.25 5.25
3776 1 1.75 12.25 8.75
3777 1 1.75 12.25 12.25
3778 1 1.75 12.25 15.75
3779 1 1.75 12.25 19.25
3780 1 1.75 12.25 22.75
3781 1 1.75 15.75 -26.25
3782 1 1.75 15.75 -22.75
3783 1 1.75 15.75 -19.25
3784 1 1.75 15.75 -15.75
3785 1 1.75 15.75 -12.25
3786 1 1.75 15.75 -8.75
3787 1 1.75 15.75 -5.25
3788 1 1.75 15.75 -1.75
3789 1 1.75 15.75 1.75
3790 1 1.75 15.75 5.25
3791 1 1.75 15.75 8.75
3792 1 1.75 15.75 12.25
3793 1 1.75 15.75 15.75
3794 1 1.75 15.75 19.25
3795 1 1.75 15.75 22.75
3796 1 1.75 19.25 -26.25
3797 1 1.75 19.25 -22.75
3798 1 1.75 19.25 -19.25
3799 1 1.75 19.25 -15.75
3800 1 1.75 19.25 -12.25
3801 1 1.75 19.25 -8.75
3802 1 1.75 19.25 -5.25
3803 1 1.75 19.25 -1.75
3804 1 1.75 19.25 1.75
3805 1 1.75 19.25 5.25
3806 1 1.75 19.25 8.75
3807 1 1.75 19.25 12.25
3808 1 1.75 19.25 15.75
3809 1 1.75 19.25 19.25
3810 1 1.75 19.25 22.75
3811 1 1.75 22.75 -26.25
3812 1 1.75 22.75 -22.75
3813 1 1.75 22.75 -19.25
3814 1 1.75 22.75 -15.75
3815 1 1.75 22.75 -12.25
3816 1 1.75 22.75 -8.75
3817 1 1.75 22.75 -5.25
3818 1 1.75 22.75 -1.75
3819 1 1.75 22.75 1.75
3820 1 1.75 22.75 5.25
3821 1 1.75 22.75 8.75
3822 1 1.75 22.75 12.25
3823 1 1.75 22.75 15.75
3824 1 1.75 22.75 19.25
3825 1 1.75 22.75 22.75
3826 1 3.5 -24.5 -24.5
3827 1 3.5 -24.5 -21.0
3828 1 3.5 -24.5 -17.5
3829 1 3.5 -24.5 -14.0
3830 1 3.5 -24.5 -10.5
3831 1 3.5 -24.5 -7.0
3832 1 3.5 -24.5 -3.5
3833 1 3.5 -24.5 0.0
3834 1 3.5 -24.5 3.5
3835 1 3.5 -24.5 7.0
3836 1 3.5 -24.5 10.5
3837 1 3.5 -24.5 14.0
3838 1 3.5 -24.5 17.5
3839 1 3.5 -24.5 21.0
3840 1 3.5 -24.5 24.5
3841 1 3.5 -21.0 -24.5
3842 1 3.5 -21.0 -21.0
3843 1 3.5 -21.0 -17.5
3844 1 3.5 -21.0 -14.0
3845 1 3.5 -21.0 -10.5
3846 1 3.5 -21.0 -7.0
3847 1 3.5 -21.0 -3.5
3848 1 3.5 -21.0 0.0
3849 1 3.5 -21.0 3.5
3850 1 3.5 -21.0 7.0
3851 1 3.5 -21.0 10.5
3852 1 3.5 -21.0 14.0
3853 1 3.5 -21.0 17.5
3854 1 3.5 -21.0 21.0
3855 1 3.5 -21.0 24.5
3856 1 3.5 -17.5 -24.5
3857 1 3.5 -17.5 -21.0
3858 1 3.5 -17.5 -17.5
3859 1 3.5 -17.5 -14.0
3860 1 3.5 -17.5 -10.5
3861 1 3.5 -17.5 -7.0
3862 1 3.5 -17.5 -3.5
3863 1 3.5 -17.5 0.0
3864 1 3.5 -17.5 3.5
3865 1 3.5 -17.5 7.0
3866 1 3.5 -17.5 10.5
3867 1 3.5 -17.5 14.0
3868 1 3.5 -17.5 17.5
3869 1 3.5 -17.5 21.0
3870 1 3.5 -17.5 24.5
3871 1 3.5 -14.0 -24.5
3872 1 3.5 -14.0 -21.0
3873 1 3.5 -14.0 -17.5
3874 1 3.5 -14.0 -14.0
3875 1 3.5 -14.0 -10.5
3876 1 3.5 -14.0 -7.0
3877 1 3.5 -14.0 -3.5
3878 1 3.5 -14.0 0.0
3879 1 3.5 -14.0 3.5
3880 1 3.5 -14.0 7.0
3881 1 3.5 -14.0 10.5
3882 1 3.5 -14.0 14.0
3883 1 3.5 -14.0 17.5
3884 1 3.5 -14.0 21.0
3885 1 3.5 -14.0 24.5
3886 1 3.5 -10.5 -24.5
3887 1 3.5 -10.5 -21.0
3888 1 3.5 -10.5 -17.5
3889 1 3.5 -10.5 -14.0
3890 1 3.5 -10.5 -10.5
3891 1 3.5 -10.5 -7.0
3892 1 3.5 -10.5 -3.5
3893 1 3.5 -10.5 0.0
3894 1 3.5 -10.5 3.5
3895 1 3.5 -10.5 7.0
3896 1 3.5 -10.5 10.5
3897 1 3.5 -10.5 14.0
3898 1 3.5 -10.5 17.5
3899 1 3.5 -10.5 21.0
3900 1 3.5 -10.5 24.5
3901 1 3.5 -7.0 -24.5
3902 1 3.5 -7.0 -21.0
3903 1 3.5 -7.0 -17.5
3904 1 3.5 -7.0 -14.0
3905 1 3.5 -7.0 -10.5
3906 1 3.5 -7.0 -7.0
3907 1 3.5 -7.0 -3.5
3908 1 3.5 -7.0 0.0
3909 1 3.5 -7.0 3.5
3910 1 3.5 -7.0 7.0
3911 1 3.5 -7.0 10.5
3912 1 3.5 -7.0 14.0
3913 1 3.5 -7.0 17.5
3914 1 3.5 -7.0 21.0
3915 1 3.5 -7.0 24.5
3916 1 3.5 -3.5 -24.5
3917 1 3.5 -3.5 -21.0
3918 1 3.5 -3.5 -17.5
3919 1 3.5 -3.5 -14.0
3920 1 3.5 -3.5 -10.5
3921 1 3.5 -3.5 -7.0
3922 1 3.5 -3.5 -3.5
3923 1 3.5 -3.5 0.0
3924 1 3.5 -3.5 3.5
3925 1 3.5 -3.5 7.0
3926 1 3.5 -3.5 10.5
3927 1 3.5 -3.5 14.0
3928 1 3.5 -3.5 17.5
3929 1 3.5 -3.5 21.0
3930 1 3.5 -3.5 24.5
3931 1 3.5 0.0 -24.5
3932 1 3.5 0.0 -21.0
3933 1 3.5 0.0 -17.5
3934 1 3.5 0.0 -14.0
3935 1 3.5 0.0 -10.5
3936 1 3.5 0.0 -7.0
3937 1 3.5 0.0 -3.5
3938 1 3.5 0.0 0.0
3939 1 3.5 0.0 3.5
3940 1 3.5 0.0 7.0
3941 1 3.5 0.0 10.5
3942 1 3.5 0.0 14.0
3943 1 3.5 0.0 17.5
3944 1 3.5 0.0 21.0
3945 1 3.5 0.0 24.5
3946 1 3.5 3.5 -24.5
3947 1 3.5 3.5 -21.0
3948 1 3.5 3.5 -17.5
3949 1 3.5 3.5 -14.0
3950 1 3.5 3.5 -10.5
3951 1 3.5 3.5 -7.0
3952 1 3.5 3.5 -3.5
3953 1 3.5 3.5 0.0
3954 1 3.5 3.5 3.5
3955 1 3.5 3.5 7.0
3956 1 3.5 3.5 10.5
3957 1 3.5 3.5 14.0
3958 1 3.5 3.5 17.5
3959 1 3.5 3.5 21.0
3960 1 3.5 3.5 24.5
3961 1 3.5 7.0 -24.5
3962 1 3.5 7.0 -21.0
3963 1 3.5 7.0 -17.5
3964 1 3.5 7.0 -14.0
3965 1 3.5 7.0 -10.5
3966 1 3.5 7.0 -7.0
3967 1 3.5 7.0 -3.5
3968 1 3.5 7.0 0.0
3969 1 3.5 7.0 3.5
3970 1 3.5 7.0 7.0
3971 1 3.5 7.0 10.5
3972 1 3.5 7.0 14.0
3973 1 3.5 7.0 17.5
3974 1 3.5 7.0 21.0
3975 1 3.5 7.0 24.5
3976 1 3.5 10.5 -24.5
3977 1 3.5 10.5 -21.0
3978 1 3.5 10.5 -17.5
3979 1 3.5 10.5 -14.0
3980 1 3.5 10.5 -10.5
3981 1 3.5 10.5 -7.0
3982 1 3.5 10.5 -3.5
3983 1 3.5 10.5 0.0
3984 1 3.5 10.5 3.5
3985 1 3.5 10.5 7.0
3986 1 3.5 10.5 10.5
3987 1 3.5 10.5 14.0
3988 1 3.5 10.5 17.5
3989 1 3.5 10.5 21.0
3990 1 3.5 10.5 24.5
3991 1 3.5 14.0 -24.5
3992 1 3.5 14.0 -21.0
3993 1 3.5 14.0 -17.5
3994 1 3.5 14.0 -14.0
3995 1 3.5 14.0 -10.5
3996 1 3.5 14.0 -7.0
3997 1 3.5 14.0 -3.5
3998 1 3.5 14.0 0.0
3999 1 3.5 14.0 3.5
4000 1 3.5 14.0 7.0
4001 1 3.5 14.0 10.5
4002 1 3.5 14.0 14.0
4003 1 3.5 14.0 17.5
4004 1 3.5 14.0 21.0
4005 1 3.5 14.0 24.5
4006 1 3.5 17.5 -24.5
4007 1 3.5 17.5 -21.0
4008 1 3.5 17.5 -17.5
4009 1 3.5 17.5 -14.0
4010 1 3.5 17.5 -10.5
4011 1 3.5 17.5 -7.0
4012 1 3.5 17.5 -3.5
4013 1 3.5 17.5 0.0
4014 1 3.5 17.5 3.5
4015 1 3.5 17.5 7.0
4016 1 3.5 17.5 10.5
4017 1 3.5 17.5 14.0
4018 1 3.5 17.5 17.5
4019 1 3.5 17.5 21.0
4020 1 3.5 17.5 24.5
4021 1 3.5 21.0 -24.5
4022 1 3.5 21.0 -21.0
4023 1 3.5 21.0 -17.5
4024 1 3.5 21.0 -14.0
4025 1 3.5 21.0 -10.5
4026 1 3.5 21.0 -7.0
4027 1 3.5 21.0 -3.5
4028 1 3.5 21.0 0.0
4029 1 3.5 21.0 3.5
4030 1 3.5 21.0 7.0
4031 1 3.5 21.0 10.5
4032 1 3.5 21.0 14.0
4033 1 3.5 21.0 17.5
4034 1 3.5 21.0 21.0
4035 1 3.5 21.0 24.5
4036 1 3.5 24.5 -24.5
4037 1 3.5 24.5 -21.0
4038 1 3.5 24.5 -17.5
4039 1 3.5 24.5 -14.0
4040 1 3.5 24.5 -10.5
4041 1 3.5 24.5 -7.0
4042 1 3.5 24.5 -3.5
4043 1 3.5 24.5 0.0
4044 1 3.5 24.5 3.5
4045 1 3.5 24.5 7.0
4046 1 3.5 24.5 10.5
4047 1 3.5 24.5 14.0
4048 1 3.5 24.5 17.5
4049 1 3.5 24.5 21.0
4050 1 3.5 24.5 24.5
4051 1 5.25 -26.25 -26.25
4052 1 5.25 -26.25 -22.75
4053 1 5.25 -26.25 -19.25
4054 1 5.25 -26.25 -15.75
4055 1 5.25 -26.25 -12.25
4056 1 5.25 -26.25 -8.75
4057 1 5.25 -26.25 -5.25
4058 1 5.25 -26.25 -1.75
4059 1 5.25 -26.25 1.75
4060 1 5.25 -26.25 5.25
4061 1 5.25 -26.25 8.75
4062 1 5.25 -26.25 12.25
4063 1 5.25 -26.25 15.75
4064 1 5.25 -26.25 19.25
4065 1 5.25 -26.25 22.75
4066 1 5.25 -22.75 -26.25
4067 1 5.25 -22.75 -22.75
4068 1 5.25 -22.75 -19.25
4069 1 5.25 -22.75 -15.75
4070 1 5.25 -22.75 -12.25
4071 1 5.25 -22.75 -8.75
4072 1 5.25 -22.75 -5.25
4073 1 5.25 -22.75 -1.75
4074 1 5.25 -22.75 1.75
4075 1 5.25 -22.75 5.25
4076 1 5.25 -22.75 8.75
4077 1 5.25 -22.75 12.25
4078 1 5.25 -22.75 15.75
4079 1 5.25 -22.75 19.25
4080 1 5.25 -22.75 22.75
4081 1 5.25 -19.25 -26.25
4082 1 5.25 -19.25 -22.75
4083 1 5.25 -19.25 -19.25
4084 1 5.25 -19.25 -15.75
4085 1 5.25 -19.25 -12.25
4086 1 5.25 -19.25 -8.75
4087 1 5.25 -19.25 -5.25
4088 1 5.25 -19.25 -1.75
4089 1 5.25 -19.25 1.75
4090 1 5.25 -19.25 5.25
4091 1 5.25 -19.25 8.75
4092 1 5.25 -19.25 12.25
4093 1 5.25 -19.25 15.75
4094 1 5.25 -19.25 19.25
4095 1 5.25 -19.25 22.75
4096 1 5.25 -15.75 -26.25
4097 1 5.25 -15.75 -22.75
4098 1 5.25 -15.75 -19.25
4099 1 5.25 -15.75 -15.75
4100 1 5.25 -15.75 -12.25
4101 1 5.25 -15.75 -8.75
4102 1 5.25 -15.75 -5.25
4103 1 5.25 -15.75 -1.75
4104 1 5.25 -15.75 1.75
4105 1 5.25 -15.75 5.25
4106 1 5.25 -15.75 8.75
4107 1 5.25 -15.75 12.25
4108 1 5.25 -15.75 15.75
4109 1 5.25 -15.75 19.25
4110 1 5.25 -15.75 22.75
4111 1 5.25 -12.25 -26.25
4112 1 5.25 -12.25 -22.75
4113 1 5.25 -12.25 -19.25
4114 1 5.25 -12.25 -15.75
4115 1 5.25 -12.25 -12.25
4116 1 5.25 -12.25 -8.75
4117 1 5.25 -12.25 -5.25
4118 1 5.25 -12.25 -1.75
4119 1 5.25 -12.25 1.75
4120 1 5.25 -12.25 5.25
4121 1 5.25 -12.25 8.75
4122 1 5.25 -12.25 12.25
4123 1 5.25 -12.25 15.75
4124 1 5.25 -12.25 19.25
4125 1 5.25 -12.25 22.75
4126 1 5.25 -8.75 -26.25
4127 1 5.25 -8.75 -22.75
4128 1 5.25 -8.75 -19.25
4129 1 5.25 -8.75 -15.75
4130 1 5.25 -8.75 -12.25
4131 1 5.25 -8.75 -8.75
4132 1 5.25 -8.75 -5.25
4133 1 5.25 -8.75 -1.75
4134 1 5.25 -8.75 1.75
4135 1 5.25 -8.75 5.25
4136 1 5.25 -8.75 8.75
4137 1 5.25 -8.75 12.25
4138 1 5.25 -8.75 15.75
4139 1 5.25 -8.75 19.25
4140 1 5.25 -8.75 22.75
4141 1 5.25 -5.25 -26.25
4142 1 5.25 -5.25 -22.75
4143 1 5.25 -5.25 -19.25
4144 1 5.25 -5.25 -15.75
4145 1 5.25 -5.25 -12.25
4146 1 5.25 -5.25 -8.75
4147 1 5.25 -5.25 -5.25
4148 1 5.25 -5.25 -1.75
4149 1 5.25 -5.25 1.75
4150 1 5.25 -5.25 5.25
4151 1 5.25 -5.25 8.75
4152 1 5.25 -5.25 12.25
4153 1 5.25 -5.25 15.75
4154 1 5.25 -5.25 19.25
4155 1 5.25 -5.25 22.75
4156 1 5.25 -1.75 -26.25
4157 1 5.25 -1.75 -22.75
4158 1 5.25 -1.75 -19.25
4159 1 5.25 -1.75 -15.75
4160 1 5.25 -1.75 -12.25
4161 1 5.25 -1.75 -8.75
4162 1 5.25 -1.75 -5.25
4163 1 5.25 -1.75 -1.75
4164 1 5.25 -1.75 1.75
4165 1 5.25 -1.75 5.25
4166 1 5.25 -1.75 8.75
4167 1 5.25 -1.75 12.25
4168 1 5.25 -1.75 15.75
4169 1 5.25 -1.75 19.25
4170 1 5.25 -1.75 22.75
4171 1 5.25 1.75 -26.25
4172 1 5.25 1.75 -22.75
4173 1 5.25 1.75 -19.25
4174 1 5.25 1.75 -15.75
4175 1 5.25 1.75 -12.25
4176 1 5.25 1.75 -8.75
4177 1 5.25 1.75 -5.25
4178 1 5.25 1.75 -1.75
4179 1 5.25 1.75 1.75
4180 1 5.25 1.75 5.25
4181 1 5.25 1.75 8.75
4182 1 5.25 1.75 12.25
4183 1 5.25 1.75 15.75
4184 1 5.25 1.75 19.25
4185 1 5.25 1.75 22.75
4186 1 5.25 5.25 -26.25
4187 1 5.25 5.25 -22.75
4188 1 5.25 5.25 -19.25
4189 1 5.25 5.25 -15.75
4190 1 5.25 5.25 -12.25
4191 1 5.25 5.25 -8.75
4192 1 5.25 5.25 -5.25
4193 1 5.25 5.25 -1.75
4194 1 5.25 5.25 1.75
4195 1 5.25 5.25 5.25
4196 1 5.25 5.25 8.75
4197 1 5.25 5.25 12.25
4198 1 5.25 5.25 15.75
4199 1 5.25 5.25 19.25
4200 1 5.25 5.25 22.75
4201 1 5.25 8.75 -26.25
4202 1 5.25 8.75 -22.75
4203 1 5.25 8.75 -19.25
4204 1 5.25 8.75 -15.75
4205 1 5.25 8.75 -12.25
4206 1 5.25 8.75 -8.75
4207 1 5.25 8.75 -5.25
4208 1 5.25 8.75 -1.75
4209 1 5.25 8.75 1.75
4210 1 5.25 8.75 5.25
4211 1 5.25 8.75 8.75
4212 1 5.25 8.75 12.25
4213 1 5.25 8.75 15.75
4214 1 5.25 8.75 19.25
4215 1 5.25 8.75 22.75
4216 1 5.25 12.25 -26.25
4217 1 5.25 12.25 -22.75
4218 1 5.25 12.25 -19.25
4219 1 5.25 12.25 -15.75
4220 1 5.25 12.25 -12.25
4221 1 5.25 12.25 -8.75
4222 1 5.25 12.25 -5.25
4223 1 5.25 12.25 -1.75
4224 1 5.25 12.25 1.75
4225 1 5.25 12.25 5.25
4226 1 5.25 12.25 8.75
4227 1 5.25 12.25 12.25
4228 1 5.25 12.25 15.75
4229 1 5.25 12.25 19.25
4230 1 5.25 12.25 22.75
4231 1 5.25 15.75 -26.25
4232 1 5.25 15.75 -22.75
4233 1 5.25 15.75 -19.25
4234 1 5.25 15.75 -15.75
4235 1 5.25 15.75 -12.25
4236 1 5.25 15.75 -8.75
4237 1 5.25 15.75 -5.25
4238 1 5.25 15.75 -1.75
4239 1 5.25 15.75 1.75
4240 1 5.25 15.75 5.25
4241 1 5.25 15.75 8.75
4242 1 5.25 15.75 12.25
4243 1 5.25 15.75 15.75
4244 1 5.25 15.75 19.25
4245 1 5.25 15.75 22.75
4246 1 5.25 19.25 -26.25
4247 1 5.25 19.25 -22.75
4248 1 5.25 19.25 -19.25
4249 1 5.25 19.25 -15.75
4250 1 5.25 19.25 -12.25
4251 1 5.25 19.25 -8.75
4252 1 5.25 19.25 -5.25
4253 1 5.25 19.25 -1.75
4254 1 5.25 19.25 1.75
4255 1 5.25 19.25 5.25
4256 1 5.25 19.25 8.75
4257 1 5.25 19.25 12.25
4258 1 5.25 19.25 15.75
4259 1 5.25 19.25 19.25
4260 1 5.25 19.25 22.75
4261 1 5.25 22.75 -26.25
4262 1 5.25 22.75 -22.75
4263 1 5.25 22.75 -19.25
4264 1 5.25 22.75 -15.75
4265 1 5.25 22.75 -12.25
4266 1 5.25 22.75 -8.75
4267 1 5.25 22.75 -5.25
4268 1 5.25 22.75 -1.75
4269 1 5.25 22.75 1.75
4270 1 5.25 22.75 5.25
4271 1 5.25 22.75 8.75
4272 1 5.25 22.75 12.25
4273 1 5.25 22.75 15.75
4274 1 5.25 22.75 19.25
4275 1 5.25 22.75 22.75
4276 1 7.0 -24.5 -24.5
4277 1 7.0 -24.5 -21.0
4278 1 7.0 -24.5 -17.5
4279 1 7.0 -24.5 -14.0
4280 1 7.0 -24.5 -10.5
4281 1 7.0 -24.5 -7.0
4282 1 7.0 -24.5 -3.5
4283 1 7.0 -24.5 0.0
4284 1 7.0 -24.5 3.5
4285 1 7.0 -24.5 7.0
4286 1 7.0 -24.5 10.5
4287 1 7.0 -24.5 14.0
4288 1 7.0 -24.5 17.5
4289 1 7.0 -24.5 21.0
4290 1 7.0 -24.5 24.5
4291 1 7.0 -21.0 -24.5
4292 1 7.0 -21.0 -21.0
4293 1 7.0 -21.0 -17.5
4294 1 7.0 -21.0 -14.0
4295 1 7.0 -21.0 -10.5
4296 1 7.0 -21.0 -7.0
4297 1 7.0 -21.0 -3.5
4298 1 7.0 -21.0 0.0
4299 1 7.0 -21.0 3.5
4300 1 7.0 -21.0 7.0
4301 1 7.0 -21.0 10.5
4302 1 7.0 -21.0 14.0
4303 1 7.0 -21.0 17.5
4304 1 7.0 -21.0 21.0
4305 1 7.0 -21.0 24.5
4306 1 7.0 -17.5 -24.5
4307 1 7.0 -17.5 -21.0
4308 1 7.0 -17.5 -17.5
4309 1 7.0 -17.5 -14.0
4310 1 7.0 -17.5 -10.5
4311 1 7.0 -17.5 -7.0
4312 1 7.0 -17.5 -3.5
4313 1 7.0 -17.5 0.0
4314 1 7.0 -17.5 3.5
4315 1 7.0 -17.5 7.0
4316 1 7.0 -17.5 10.5
4317 1 7.0 -17.5 14.0
4318 1 7.0 -17.5 17.5
4319 1 7.0 -17.5 21.0
4320 1 7.0 -17.5 24.5
4321 1 7.0 -14.0 -24.5
4322 1 7.0 -14.0 -21.0
4323 1 7.0 -14.0 -17.5
4324 1 7.0 -14.0 -14.0
4325 1 7.0 -14.0 -10.5
4326 1 7.0 -14.0 -7.0
4327 1 7.0 -14.0 -3.5
4328 1 7.0 -14.0 0.0
4329 1 7.0 -14.0 3.5
4330 1 7.0 -14.0 7.0
4331 1 7.0 -14.0 10.5
4332 1 7.0 -14.0 14.0
4333 1 7.0 -14.0 17.5
4334 1 7.0 -14.0 21.0
4335 1 7.0 -14.0 24.5
4336 1 7.0 -10.5 -24.5
4337 1 7.0 -10.5 -21.0
4338 1 7.0 -10.5 -17.5
4339 1 7.0 -10.5 -14.0
4340 1 7.0 -10.5 -10.5
4341 1 7.0 -10.5 -7.0
4342 1 7.0 -10.5 -3.5
4343 1 7.0 -10.5 0.0
4344 1 7.0 -10.5 3.5
4345 1 7.0 -10.5 7.0
4346 1 7.0 -10.5 10.5
4347 1 7.0 -10.5 14.0
4348 1 7.0 -10.5 17.5
4349 1 7.0 -10.5 21.0
4350 1 7.0 -10.5 24.5
4351 1 7.0 -7.0 -24.5
4352 1 7.0 -7.0 -21.0
4353 1 7.0 -7.0 -17.5
4354 1 7.0 -7.0 -14.0
4355 1 7.0 -7.0 -10.5
4356 1 7.0 -7.0 -7.0
4357 1 7.0 -7.0 -3.5
4358 1 7.0 -7.0 0.0
4359 1 7.0 -7.0 3.5
4360 1 7.0 -7.0 7.0
4361 1 7.0 -7.0 10.5
4362 1 7.0 -7.0 14.0
4363 1 7.0 -7.0 17.5
4364 1 7.0 -7.0 21.0
4365 1 7.0 -7.0 24.5
4366 1 7.0 -3.5 -24.5
4367 1 7.0 -3.5 -21.0
4368 1 7.0 -3.5 -17.5
4369 1 7.0 -3.5 -14.0
4370 1 7.0 -3.5 -10.5
4371 1 7.0 -3.5 -7.0
4372 1 7.0 -3.5 -3.5
4373 1 7.0 -3.5 0.0
4374 1 7.0 -3.5 3.5
4375 1 7.0 -3.5 7.0
4376 1 7.0 -3.5 10.5
4377 1 7.0 -3.5 14.0
4378 1 7.0 -3.5 17.5
4379 1 7.0 -3.5 21.0
4380 1 7.0 -3.5 24.5
4381 1 7.0 0.0 -24.5
4382 1 7.0 0.0 -21.0
4383 1 7.0 0.0 -17.5
4384 1 7.0 0.0 -14.0
4385 1 7.0 0.0 -10.5
4386 1 7.0 0.0 -7.0
4387 1 7.0 0.0 -3.5
4388 1 7.0 0.0 0.0
4389 1 7.0 0.0 3.5
4390 1 7.0 0.0 7.0
4391 1 7.0 0.0 10.5
4392 1 7.0 0.0 14.0
4393 1 7.0 0.0 17.5
4394 1 7.0 0.0 21.0
4395 1 7.0 0.0 24.5
4396 1 7.0 3.5 -24.5
4397 1 7.0 3.5 -21.0
4398 1 7.0 3.5 -17.5
4399 1 7.0 3.5 -14.0
4400 1 7.0 3.5 -10.5
4401 1 7.0 3.5 -7.0
4402 1 7.0 3.5 -3.5
4403 1 7.0 3.5 0.0
4404 1 7.0 3.5 3.5
4405 1 7.0 3.5 7.0
4406 1 7.0 3.5 10.5
4407 1 7.0 3.5 14.0
4408 1 7.0 3.5 17.5
4409 1 7.0 3.5 21.0
4410 1 7.0 3.5 24.5
4411 1 7.0 7.0 -24.5
4412 1 7.0 7.0 -21.0
4413 1 7.0 7.0 -17.5
4414 1 7.0 7.0 -14.0
4415 1 7.0 7.0 -10.5
4416 1 7.0 7.0 -7.0
4417 1 7.0 7.0 -3.5
4418 1 7.0 7.0 0.0
4419 1 7.0 7.0 3.5
4420 1 7.0 7.0 7.0
4421 1 7.0 7.0 10.5
4422 1 7.0 7.0 14.0
4423 1 7.0 7.0 17.5
4424 1 7.0 7.0 21.0
4425 1 7.0 7.0 24.5
4426 1 7.0 10.5 -24.5
4427 1 7.0 10.5 -21.0
4428 1 7.0 10.5 -17.5
4429 1 7.0 10.5 -14.0
4430 1 7.0 10.5 -10.5
4431 1 7.0 10.5 -7.0
4432 1 7.0 10.5 -3.5
4433 1 7.0 10.5 0.0
4434 1 7.0 10.5 3.5
4435 1 7.0 10.5 7.0
4436 1 7.0 10.5 10.5
4437 1 7.0 10.5 14.0
4438 1 7.0 10.5 17.5
4439 1 7.0 10.5 21.0
4440 1 7.0 10.5 24.5
4441 1 7.0 14.0 -24.5
4442 1 7.0 14.0 -21.0
4443 1 7.0 14.0 -17.5
4444 1 7.0 14.0 -14.0
4445 1 7.0 14.0 -10.5
4446 1 7.0 14.0 -7.0
4447 1 7.0 14.0 -3.5
4448 1 7.0 14.0 0.0
4449 1 7.0 14.0 3.5
4450 1 7.0 14.0 7.0
4451 1 7.0 14.0 10.5
4452 1 7.0 14.0 14.0
4453 1 7.0 14.0 17.5
4454 1 7.0 14.0 21.0
4455 1 7.0 14.0 24.5
4456 1 7.0 17.5 -24.5
4457 1 7.0 17.5 -21.0
4458 1 7.0 17.5 -17.5
4459 1 7.0 17.5 -14.0
4460 1 7.0 17.5 -10.5
4461 1 7.0 17.5 -7.0
4462 1 7.0 17.5 -3.5
4463 1 7.0 17.5 0.0
4464 1 7.0 17.5 3.5
4465 1 7.0 17.5 7.0
4466 1 7.0 17.5 10.5
4467 1 7.0 17.5 14.0
4468 1 7.0 17.5 17.5
4469 1 7.0 17.5 21.0
4470 1 7.0 17.5 24.5
4471 1 7.0 21.0 -24.5
4472 1 7.0 21.0 -21.0
4473 1 7.0 21.0 -17.5
4474 1 7.0 21.0 -14.0
4475 1 7.0 21.0 -10.5
4476 1 7.0 21.0 -7.0
4477 1 7.0 21.0 -3.5
4478 1 7.0 21.0 0.0
4479 1 7.0 21.0 3.5
4480 1 7.0 21.0 7.0
4481 1 7.0 21.0 10.5
4482 1 7.0 21.0 14.0
4483 1 7.0 21.0 17.5
4484 1 7.0 21.0 21.0
4485 1 7.0 21.0 24.5
4486 1 7.0 24.5 -24.5
4487 1 7.0 24.5 -21.0
4488 1 7.0 24.5 -17.5
4489 1 7.0 24.5 -14.0
4490 1 7.0 24.5 -10.5
4491 1 7.0 24.5 -7.0
4492 1 7.0 24.5 -3.5
4493 1 7.0 24.5 0.0
4494 1 7.0 24.5 3.5
4495 1 7.0 24.5 7.0
4496 1 7.0 24.5 10.5
4497 1 7.0 24.5 14.0
4498 1 7.0 24.5 17.5
4499 1 7.0 24.5 21.0
4500 1 7.0 24.5 24.5
4501 1 8.75 -26.25 -26.25
4502 1 8.75 -26.25 -22.75
4503 1 8.75 -26.25 -19.25
4504 1 8.75 -26.25 -15.75
4505 1 8.75 -26.25 -12.25
4506 1 8.75 -26.25 -8.75
4507 1 8.75 -26.25 -5.25
4508 1 8.75 -26.25 -1.75
4509 1 8.75 -26.25 1.75
4510 1 8.75 -26.25 5.25
4511 1 8.75 -26.25 8.75
4512 1 8.75 -26.25 12.25
4513 1 8.75 -26.25 15.75
4514 1 8.75 -26.25 19.25
4515 1 8.75 -26.25 22.75
4516 1 8.75 -22.75 -26.25
4517 1 8.75 -22.75 -22.75
4518 1 8.75 -22.75 -19.25
4519 1 8.75 -22.75 -15.75
4520 1 8.75 -22.75 -12.25
4521 1 8.75 -22.75 -8.75
4522 1 8.75 -22.75 -5.25
4523 1 8.75 -22.75 -1.75
4524 1 8.75 -22.75 1.75
4525 1 8.75 -22.75 5.25
4526 1 8.75 -22.75 8.75
4527 1 8.75 -22.75 12.25
4528 1 8.75 -22.75 15.75
4529 1 8.75 -22.75 19.25
4530 1 8.75 -22.75 22.75
4531 1 8.75 -19.25 -26.25
4532 1 8.75 -19.25 -22.75
4533 1 8.75 -19.25 -19.25
4534 1 8.75 -19.25 -15.75
4535 1 8.75 -19.25 -12.25
4536 1 8.75 -19.25 -8.75
4537 1 8.75 -19.25 -5.25
4538 1 8.75 -19.25 -1.75
4539 1 8.75 -19.25 1.75
4540 1 8.75 -19.25 5.25
4541 1 8.75 -19.25 8.75
4542 1 8.75 -19.25 12.25
4543 1 8.75 -19.25 15.75
4544 1 8.75 -19.25 19.25
4545 1 8.75 -19.25 22.75
4546 1 8.75 -15.75 -26.25
4547 1 8.75 -15.75 -22.75
4548 1 8.75 -15.75 -19.25
4549 1 8.75 -15.75 -15.75
4550 1 8.75 -15.75 -12.25
4551 1 8.75 -15.75 -8.75
4552 1 8.75 -15.75 -5.25
4553 1 8.75 -15.75 -1.75
4554 1 8.75 -15.75 1.75
4555 1 8.75 -15.75 5.25
4556 1 8.75 -15.75 8.75
4557 1 8.75 -15.75 12.25
4558 1 8.75 -15.75 15.75
4559 1 8.75 -15.75 19.25
4560 1 8.75 -15.75 22.75
4561 1 8.75 -12.25 -26.25
4562 1 8.75 -12.25 -22.75
4563 1 8.75 -12.25 -19.25
4564 1 8.75 -12.25 -15.75
4565 1 8.75 -12.25 -12.25
4566 1 8.75 -12.25 -8.75
4567 1 8.75 -12.25 -5.25
4568 1 8.75 -12.25 -1.75
4569 1 8.75 -12.25 1.75
4570 1 8.75 -12.25 5.25
4571 1 8.75 -12.25 8.75
4572 1 8.75 -12.25 12.25
4573 1 8.75 -12.25 15.75
4574 1 8.75 -12.25 19.25
4575 1 8.75 -12.25 22.75
4576 1 8.75 -8.75 -26.25
4577 1 8.75 -8.75 -22.75
4578 1 8.75 -8.75 -19.25
4579 1 8.75 -8.75 -15.75
4580 1 8.75 -8.75 -12.25
4581 1 8.75 -8.75 -8.75
4582 1 8.75 -8.75 -5.25
4583 1 8.75 -8.75 -1.75
4584 1 8.75 -8.75 1.75
4585 1 8.75 -8.75 5.25
4586 1 8.75 -8.75 8.75
4587 1 8.75 -8.75 12.25
4588 1 8.75 -8.75 15.75
4589 1 8.75 -8.75 19.25
4590 1 8.75 -8.75 22.75
4591 1 8.75 -5.25 -26.25
4592 1 8.75 -5.25 -22.75
4593 1 8.75 -5.25 -19.25
4594 1 8.75 -5.25 -15.75
4595 1 8.75 -5.25 -12.25
4596 1 8.75 -5.25 -8.75
4597 1 8.75 -5.25 -5.25
4598 1 8.75 -5.25 -1.75
4599 1 8.75 -5.25 1.75
4600 1 8.75 -5.25 5.25
4601 1 8.75 -5.25 8.75
4602 1 8.75 -5.25 12.25
4603 1 8.75 -5.25 15.75
4604 1 8.75 -5.25 19.25
4605 1 8.75 -5.25 22.75
4606 1 8.75 -1.75 -26.25
4607 1 8.75 -1.75 -22.75
4608 1 8.75 -1.75 -19.25
4609 1 8.75 -1.75 -15.75
4610 1 8.75 -1.75 -12.25
4611 1 8.75 -1.75 -8.75
4612 1 8.75 -1.75 -5.25
4613 1 8.75 -1.75 -1.75
4614 1 8.75 -1.75 1.75
4615 1 8.75 -1.75 5.25
4616 1 8.75 -1.75 8.75
4617 1 8.75 -1.75 12.25
4618 1 8.75 -1.75 15.75
4619 1 8.75 -1.75 19.25
4620 1 8.75 -1.75 22.75
4621 1 8.75 1.75 -26.25
4622 1 8.75 1.75 -22.75
4623 1 8.75 1.75 -19.25
4624 1 8.75 1.75 -15.75
4625 1 8.75 1.75 -12.25
4626 1 8.75 1.75 -8.75
4627 1 8.75 1.75 -5.25
4628 1 8.75 1.75 -1.75
4629 1 8.75 1.75 1.75
4630 1 8.75 1.75 5.25
4631 1 8.75 1.75 8.75
4632 1 8.75 1.75 12.25
4633 1 8.75 1.75 15.75
4634 1 8.75 1.75 19.25
4635 1 8.75 1.75 22.75
4636 1 8.75 5.25 -26.25
4637 1 8.75 5.25 -22.75
4638 1 8.75 5.25 -19.25
4639 1 8.75 5.25 -15.75
4640 1 8.75 5.25 -12.25
4641 1 8.75 5.25 -8.75
4642 1 8.75 5.25 -5.25
4643 1 8.75 5.25 -1.75
4644 1 8.75 5.25 1.75
4645 1 8.75 5.25 5.25
4646 1 8.75 5.25 8.75
4647 1 8.75 5.25 12.25
4648 1 8.75 5.25 15.75
4649 1 8.75 5.25 19.25
4650 1 8.75 5.25 22.75
4651 1 8.75 8.75 -26.25
4652 1 8.75 8.75 -22.75
4653 1 8.75 8.75 -19.25
4654 1 8.75 8.75 -15.75
4655 1 8.75 8.75 -12.25
4656 1 8.75 8.75 -8.75
4657 1 8.75 8.75 -5.25
4658 1 8.75 8.75 -1.75
4659 1 8.75 8.75 1.75
4660 1 8.75 8.75 5.25
4661 1 8.75 8.75 8.75
4662 1 8.75 8.75 12.25
4663 1 8.75 8.75 15.75
4664 1 8.75 8.75 19.25
4665 1 8.75 8.75 22.75
4666 1 8.75 12.25 -26.25
4667 1 8.75 12.25 -22.75
4668 1 8.75 12.25 -19.25
4669 1 8.75 12.25 -15.75
4670 1 8.75 12.25 -12.25
4671 1 8.75 12.25 -8.75
4672 1 8.75 12.25 -5.25
4673 1 8.75 12.25 -1.75
4674 1 8.75 12.25 1.75
4675 1 8.75 12.25 5.25
4676 1 8.75 12.25 8.75
4677 1 8.75 12.25 12.25
4678 1 8.75 12.25 15.75
4679 1 8.75 12.25 19.25
4680 1 8.75 12.25 22.75
4681 1 8.75 15.75 -26.25
4682 1 8.75 15.75 -22.75
4683 1 8.75 15.75 -19.25
4684 1 8.75 15.75 -15.75
4685 1 8.75 15.75 -12.25
4686 1 8.75 15.75 -8.75
4687 1 8.75 15.75 -5.25
4688 1 8.75 15.75 -1.75
4689 1 8.75 15.75 1.75
4690 1 8.75 15.75 5.25
4691 1 8.75 15.75 8.75
4692 1 8.75 15.75 12.25
4693 1 8.75 15.75 15.75
4694 1 8.75 15.75 19.25
4695 1 8.75 15.75 22.75
4696 1 8.75 19.25 -26.25
4697 1 8.75 19.25 -22.75
4698 1 8.75 19.25 -19.25
4699 1 8.75 19.25 -15.75
4700 1 8.75 19.25 -12.25
4701 1 8.75 19.25 -8.75
4702 1 8.75 19.25 -5.25
4703 1 8.75 19.25 -1.75
4704 1 8.75 19.25 1.75
4705 1 8.75 19.25 5.25
4706 1 8.75 19.25 8.75
4707 1 8.75 19.25 12.25
4708 1 8.75 19.25 15.75
4709 1 8.75 19.25 19.25
4710 1 8.75 19.25 22.75
4711 1 8.75 22.75 -26.25
4712 1 8.75 22.75 -22.75
4713 1 8.75 22.75 -19.25
4714 1 8.75 22.75 -15.75
4715 1 8.75 22.75 -12.25
4716 1 8.75 22.75 -8.75
4717 1 8.75 22.75 -5.25
4718 1 8.75 22.75 -1.75
4719 1 8.75 22.75 1.75
4720 1 8.75 22.75 5.25
4721 1 8.75 22.75 8.75
4722 1 8.75 22.75 12.25
4723 1 8.75 22.75 15.75
4724 1 8.75 22.75 19.25
4725 1 8.75 22.75 22.75
4726 1 10.5 -24.5 -24.5
4727 1 10.5 -24.5 -21.0
4728 1 10.5 -24.5 -17.5
4729 1 10.5 -24.5 -14.0
4730 1 10.5 -24.5 -10.5
4731 1 10.5 -24.5 -7.0
4732 1 10.5 -24.5 -3.5
4733 1 10.5 -24.5 0.0
4734 1 10.5 -24.5 3.5
4735 1 10.5 -24.5 7.0
4736 1 10.5 -24.5 10.5
4737 1 10.5 -24.5 14.0
4738 1 10.5 -24.5 17.5
4739 1 10.5 -24.5 21.0
4740 1 10.5 -24.5 24.5
4741 1 10.5 -21.0 -24.5
4742 1 10.5 -21.0 -21.0
4743 1 10.5 -21.0 -17.5
4744 1 10.5 -21.0 -14.0
4745 1 10.5 -21.0 -10.5
4746 1 10.5 -21.0 -7.0
4747 1 10.5 -21.0 -3.5
4748 1 10.5 -21.0 0.0
4749 1 10.5 -21.0 3.5
4750 1 10.5 -21.0 7.0
4751 1 10.5 -21.0 10.5
4752 1 10.5 -21.0 14.0
4753 1 10.5 -21.0 17.5
4754 1 10.5 -21.0 21.0
4755 1 10.5 -21.0 24.5
4756 1 10.5 -17.5 -24.5
4757 1 10.5 -17.5 -21.0
4758 1 10.5 -17.5 -17.5
4759 1 10.5 -17.5 -14.0
4760 1 10.5 -17.5 -10.5
4761 1 10.5 -17.5 -7.0
4762 1 10.5 -17.5 -3.5
4763 1 10.5 -17.5 0.0
4764 1 10.5 -17.5 3.5
4765 1 10.5 -17.5 7.0
4766 1 10.5 -17.5 10.5
4767 1 10.5 -17.5 14.0
4768 1 10.5 -17.5 17.5
4769 1 10.5 -17.5 21.0
4770 1 10.5 -17.5 24.5
4771 1 10.5 -14.0 -24.5
4772 1 10.5 -14.0 -21.0
4773 1 10.5 -14.0 -17.5
4774 1 10.5 -14.0 -14.0
4775 1 10.5 -14.0 -10.5
4776 1 10.5 -14.0 -7.0
4777 1 10.5 -14.0 -3.5
4778 1 10.5 -14.0 0.0
4779 1 10.5 -14.0 3.5
4780 1 10.5 -14.0 7.0
4781 1 10.5 -14.0 10.5
4782 1 10.5 -14.0 14.0
4783 1 10.5 -14.0 17.5
4784 1 10.5 -14.0 21.0
4785 1 10.5 -14.0 24.5
4786 1 10.5 -10.5 -24.5
4787 1 10.5 -10.5 -21.0
4788 1 10.5 -10.5 -17.5
4789 1 10.5 -10.5 -14.0
4790 1 10.5 -10.5 -10.5
4791 1 10.5 -10.5 -7.0
4792 1 10.5 -10.5 -3.5
4793 1 10.5 -10.5 0.0
4794 1 10.5 -10.5 3.5
4795 1 10.5 -10.5 7.0
4796 1 10.5 -10.5 10.5
4797 1 10.5 -10.5 14.0
4798 1 10.5 -10.5 17.5
4799 1 10.5 -10.5 21.0
4800 1 10.5 -10.5 24.5
4801 1 10.5 -7.0 -24.5
4802 1 10.5 -7.0 -21.0
4803 1 10.5 -7.0 -17.5
4804 1 10.5 -7.0 -14.0
4805 1 10.5 -7.0 -10.5
4806 1 10.5 -7.0 -7.0
4807 1 10.5 -7.0 -3.5
4808 1 10.5 -7.0 0.0
4809 1 10.5 -7.0 3.5
4810 1 10.5 -7.0 7.0
4811 1 10.5 -7.0 10.5
4812 1 10.5 -7.0 14.0
4813 1 10.5 -7.0 17.5
4814 1 10.5 -7.0 21.0
4815 1 10.5 -7.0 24.5
4816 1 10.5 -3.5 -24.5
4817 1 10.5 -3.5 -21.0
4818 1 10.5 -3.5 -17.5
4819 1 10.5 -3.5 -14.0
4820 1 10.5 -3.5 -10.5
4821 1 10.5 -3.5 -7.0
4822 1 10.5 -3.5 -3.5
4823 1 10.5 -3.5 0.0
4824 1 10.5 -3.5 3.5
4825 1 10.5 -3.5 7.0
4826 1 10.5 -3.5 10.5
4827 1 10.5 -3.5 14.0
4828 1 10.5 -3.5 17.5
4829 1 10.5 -3.5 21.0
4830 1 10.5 -3.5 24.5
4831 1 10.5 0.0 -24.5
4832 1 10.5 0.0 -21.0
4833 1 10.5 0.0 -17.5
4834 1 10.5 0.0 -14.0
4835 1 10.5 0.0 -10.5
4836 1 10.5 0.0 -7.0
4837 1 10.5 0.0 -3.5
4838 1 10.5 0.0 0.0
4839 1 10.5 0.0 3.5
4840 1 10.5 0.0 7.0
4841 1 10.5 0.0 10.5
4842 1 10.5 0.0 14.0
4843 1 10.5 0.0 17.5
4844 1 10.5 0.0 21.0
4845 1 10.5 0.0 24.5
4846 1 10.5 3.5 -24.5
4847 1 10.5 3.5 -21.0
4848 1 10.5 3.5 -17.5
4849 1 10.5 3.5 -14.0
4850 1 10.5 3.5 -10.5
4851 1 10.5 3.5 -7.0
4852 1 10.5 3.5 -3.5
4853 1 10.5 3.5 0.0
4854 1 10.5 3.5 3.5
4855 1 10.5 3.5 7.0
4856 1 10.5 3.5 10.5
4857 1 10.5 3.5 14.0
4858 1 10.5 3.5 17.5
4859 1 10.5 3.5 21.0
4860 1 10.5 3.5 24.5
4861 1 10.5 7.0 -24.5
4862 1 10.5 7.0 -21.0
4863 1 10.5 7.0 -17.5
4864 1 10.5 7.0 -14.0
4865 1 10.5 7.0 -10.5
4866 1 10.5 7.0 -7.0
4867 1 10.5 7.0 -3.5
4868 1 10.5 7.0 0.0
4869 1 10.5 7.0 3.5
4870 1 10.5 7.0 7.0
4871 1 10.5 7.0 10.5
4872 1 10.5 7.0 14.0
4873 1 10.5 7.0 17.5
4874 1 10.5 7.0 21.0
4875 1 10.5 7.0 24.5
4876 1 10.5 10.5 -24.5
4877 1 10.5 10.5 -21.0
4878 1 10.5 10.5 -17.5
4879 1 10.5 10.5 -14.0
4880 1 10.5 10.5 -10.5
4881 1 10.5 10.5 -7.0
4882 1 10.5 10.5 -3.5
4883 1 10.5 10.5 0.0
4884 1 10.5 10.5 3.5
4885 1 10.5 10.5 7.0
4886 1 10.5 10.5 10.5
4887 1 10.5 10.5 14.0
4888 1 10.5 10.5 17.5
4889 1 10.5 10.5 21.0
4890 1 10.5 10.5 24.5
4891 1 10.5 14.0 -24.5
4892 1 10.5 14.0 -21.0
4893 1 10.5 14.0 -17.5
4894 1 10.5 14.0 -14.0
4895 1 10.5 14.0 -10.5
4896 1 10.5 14.0 -7.0
4897 1 10.5 14.0 -3.5
4898 1 10.5 14.0 0.0
4899 1 10.5 14.0 3.5
4900 1 10.5 14.0 7.0
4901 1 10.5 14.0 10.5
4902 1 10.5 14.0 14.0
4903 1 10.5 14.0 17.5
4904 1 10.5 14.0 21.0
4905 1 10.5 14.0 24.5
4906 1 10.5 17.5 -24.5
4907 1 10.5 17.5 -21.0
4908 1 10.5 17.5 -17.5
4909 1 10.5 17.5 -14.0
4910 1 10.5 17.5 -10.5
4911 1 10.5 17.5 -7.0
4912 1 10.5 17.5 -3.5
4913 1 10.5 17.5 0.0
4914 1 10.5 17.5 3.5
4915 1 10.5 17.5 7.0
4916 1 10.5 17.5 10.5
4917 1 10.5 17.5 14.0
4918 1 10.5 17.5 17.5
4919 1 10.5 17.5 21.0
4920 1 10.5 17.5 24.5
4921 1 10.5 21.0 -24.5
4922 1 10.5 21.0 -21.0
4923 1 10.5 21.0 -17.5
4924 1 10.5 21.0 -14.0
4925 1 10.5 21.0 -10.5
4926 1 10.5 21.0 -7.0
4927 1 10.5 21.0 -3.5
4928 1 10.5 21.0 0.0
4929 1 10.5 21.0 3.5
4930 1 10.5 21.0 7.0
4931 1 10.5 21.0 10.5
4932 1 10.5 21.0 14.0
4933 1 10.5 21.0 17.5
4934 1 10.5 21.0 21.0
4935 1 10.5 21.0 24.5
4936 1 10.5 24.5 -24.5
4937 1 10.5 24.5 -21.0
4938 1 10.5 24.5 -17.5
4939 1 10.5 24.5 -14.0
4940 1 10.5 24.5 -10.5
4941 1 10.5 24.5 -7.0
4942 1 10.5 24.5 -3.5
4943 1 10.5 24.5 0.0
4944 1 10.5 24.5 3.5
4945 1 10.5 24.5 7.0
4946 1 10.5 24.5 10.5
4947 1 10.5 24.5 14.0
4948 1 10.5 24.5 17.5
4949 1 10.5 24.5 21.0
4950 1 10.5 24.5 24.5
4951 1 12.25 -26.25 -26.25
4952 1 12.25 -26.25 -22.75
4953 1 12.25 -26.25 -19.25
4954 1 12.25 -26.25 -15.75
4955 1 12.25 -26.25 -12.25
4956 1 12.25 -26.25 -8.75
4957 1 12.25 -26.25 -5.25
4958 1 12.25 -26.25 -1.75
4959 1 12.25 -26.25 1.75
4960 1 12.25 -26.25 5.25
4961 1 12.25 -26.25 8.75
4962 1 12.25 -26.25 12.25
4963 1 12.25 -26.25 15.75
4964 1 12.25 -26.25 19.25
4965 1 12.25 -26.25 22.75
4966 1 12.25 -22.75 -26.25
4967 1 12.25 -22.75 -22.75
4968 1 12.25 -22.75 -19.25
4969 1 12.25 -22.75 -15.75
4970 1 12.25 -22.75 -12.25
4971 1 12.25 -22.75 -8.75
4972 1 12.25 -22.75 -5.25
4973 1 12.25 -22.75 -1.75
4974 1 12.25 -22.75 1.75
4975 1 12.25 -22.75 5.25
4976 1 12.25 -22.75 8.75
4977 1 12.25 -22.75 12.25
4978 1 12.25 -22.75 15.75
4979 1 12.25 -22.75 19.25
4980 1 12.25 -22.75 22.75
4981 1 12.25 -19.25 -26.25
4982 1 12.25 -19.25 -22.75
4983 1 12.25 -19.25 -19.25
4984 1 12.25 -19.25 -15.75
4985 1 12.25 -19.25 -12.25
4986 1 12.25 -19.25 -8.75
4987 1 12.25 -19.25 -5.25
4988 1 12.25 -19.25 -1.75
4989 1 12.25 -19.25 1.75
4990 1 12.25 -19.25 5.25
4991 1 12.25 -19.25 8.75
4992 1 12.25 -19.25 12.25
4993 1 12.25 -19.25 15.75
4994 1 12.25 -19.25 19.25
4995 1 12.25 -19.25 22.75
4996 1 12.25 -15.75 -26.25
4997 1 12.25 -15.75 -22.75
4998 1 12.25 -15.75 -19.25
4999 1 12.25 -15.75 -15.75
5000 1 12.25 -15.75 -12.25
5001 1 12.25 -15.75 -8.75
5002 1 12.25 -15.75 -5.25
5003 1 12.25 -15.75 -1.75
5004 1 12.25 -15.75 1.75
5005 1 12.25 -15.75 5.25
5006 1 12.25 -15.75 8.75
5007 1 12.25 -15.75 12.25
5008 1 12.25 -15.75 15.75
5009 1 12.25 -15.75 19.25
5010 1 12.25 -15.75 22.75
5011 1 12.25 -12.25 -26.25
5012 1 12.25 -12.25 -22.75
5013 1 12.25 -12.25 -19.25
5014 1 12.25 -12.25 -15.75
5015 1 12.25 -12.25 -12.25
5016 1 12.25 -12.25 -8.75
5017 1 12.25 -12.25 -5.25
5018 1 12.25 -12.25 -1.75
5019 1 12.25 -12.25 1.75
5020 1 12.25 -12.25 5.25
5021 1 12.25 -12.25 8.75
5022 1 12.25 -12.25 12.25
5023 1 12.25 -12.25 15.75
5024 1 12.25 -12.25 19.25
5025 1 12.25 -12.25 22.75
5026 1 12.25 -8.75 -26.25
5027 1 12.25 -8.75 -22.75
5028 1 12.25 -8.75 -19.25
5029 1 12.25 -8.75 -15.75
5030 1 12.25 -8.75 -12.25
5031 1 12.25 -8.75 -8.75
5032 1 12.25 -8.75 -5.25
5033 1 12.25 -8.75 -1.75
5034 1 12.25 -8.75 1.75
5035 1 12.25 -8.75 5.25
5036 1 12.25 -8.75 8.75
5037 1 12.25 -8.75 12.25
5038 1 12.25 -8.75 15.75
5039 1 12.25 -8.75 19.25
5040 1 12.25 -8.75 22.75
5041 1 12.25 -5.25 -26.25
5042 1 12.25 -5.25 -22.75
5043 1 12.25 -5.25 -19.25
5044 1 12.25 -5.25 -15.75
5045 1 12.25 -5.25 -12.25
5046 1 12.25 -5.25 -8.75
5047 1 12.25 -5.25 -5.25
5048 1 12.25 -5.25 -1.75
5049 1 12.25 -5.25 1.75
5050 1 12.25 -5.25 5.25
5051 1 12.25 -5.25 8.75
5052 1 12.25 -5.25 12.25
5053 1 12.25 -5.25 15.75
5054 1 12.25 -5.25 19.25
5055 1 12.25 -5.25 22.75
5056 1 12.25 -1.75 -26.25
5057 1 12.25 -1.75 -22.75
5058 1 12.25 -1.75 -19.25
5059 1 12.25 -1.75 -15.75
5060 1 12.25 -1.75 -12.25
5061 1 12.25 -1.75 -8.75
5062 1 12.25 -1.75 -5.25
5063 1 12.25 -1.75 -1.75
5064 1 12.25 -1.75 1.75
5065 1 12.25 -1.75 5.25
5066 1 12.25 -1.75 8.75
5067 1 12.25 -1.75 12.25
5068 1 12.25 -1.75 15.75
5069 1 12.25 -1.75 19.25
5070 1 12.25 -1.75 22.75
5071 1 12.25 1.75 -26.25
5072 1 12.25 1.75 -22.75
5073 1 12.25 1.75 -19.25
5074 1 12.25 1.75 -15.75
5075 1 12.25 1.75 -12.25
5076 1 12.25 1.75 -8.75
5077 1 12.25 1.75 -5.25
5078 1 12.25 1.75 -1.75
5079 1 12.25 1.75 1.75
5080 1 12.25 1.75 5.25
5081 1 12.25 1.75 8.75
5082 1 12.25 1.75 12.25
5083 1 12.25 1.75 15.75
5084 1 12.25 1.75 19.25
5085 1 12.25 1.75 22.75
5086 1 12.25 5.25 -26.25
5087 1 12.25 5.25 -22.75
5088 1 12.25 5.25 -19.25
5089 1 12.25 5.25 -15.75
5090 1 12.25 5.25 -12.25
5091 1 12.25 5.25 -8.75
5092 1 12.25 5.25 -5.25
5093 1 12.25 5.25 -1.75
5094 1 12.25 5.25 1.75
5095 1 12.25 5.25 5.25
5096 1 12.25 5.25 8.75
5097 1 12.25 5.25 12.25
5098 1 12.25 5.25 15.75
5099 1 12.25 5.25 19.25
5100 1 12.25 5.25 22.75
5101 1 12.25 8.75 -26.25
5102 1 12.25 8.75 -22.75
5103 1 12.25 8.75 -19.25
5104 1 12.25 8.75 -15.75
5105 1 12.25 8.75 -12.25
5106 1 12.25 8.75 -8.75
5107 1 12.25 8.75 -5.25
5108 1 12.25 8.75 -1.75
5109 1 12.25 8.75 1.75
5110 1 12.25 8.75 5.25
5111 1 12.25 8.75 8.75
5112 1 12.25 8.75 12.25
5113 1 12.25 8.75 15.75
5114 1 12.25 8.75 19.25
5115 1 12.25 8.75 22.75
5116 1 12.25 12.25 -26.25
5117 1 12.25 12.25 -22.75
5118 1 12.25 12.25 -19.25
5119 1 12.25 12.25 -15.75
5120 1 12.25 12.25 -12.25
5121 1 12.25 12.25 -8.75
5122 1 12.25 12.25 -5.25
5123 1 12.25 12.25 -1.75
5124 1 12.25 12.25 1.75
5125 1 12.25 12.25 5.25
5126 1 12.25 12.25 8.75
5127 1 12.25 12.25 12.25
5128 1 12.25 12.25 15.75
5129 1 12.25 12.25 19.25
5130 1 12.25 12.25 22.75
5131 1 12.25 15.75 -26.25
5132 1 12.25 15.75 -22.75
5133 1 12.25 15.75 -19.25
5134 1 12.25 15.75 -15.75
5135 1 12.25 15.75 -12.25
5136 1 12.25 15.75 -8.75
5137 1 12.25 15.75 -5.25
5138 1 12.25 15.75 -1.75
5139 1 12.25 15.75 1.75
5140 1 12.25 15.75 5.25
5141 1 12.25 15.75 8.75
5142 1 12.25 15.75 12.25
5143 1 12.25 15.75 15.75
5144 1 12.25 15.75 19.25
5145 1 12.25 15.75 22.75
5146 1 12.25 19.25 -26.25
5147 1 12.25 19.25 -22.75
5148 1 12.25 19.25 -19.25
5149 1 12.25 19.25 -15.75
5150 1 12.25 19.25 -12.25
5151 1 12.25 19.25 -8.75
5152 1 12.25 19.25 -5.25
5153 1 12.25 19.25 -1.75
5154 1 12.25 19.25 1.75
5155 1 12.25 19.25 5.25
5156 1 12.25 19.25 8.75
5157 1 12.25 19.25 12.25
5158 1 12.25 19.25 15.75
5159 1 12.25 19.25 19.25
5160 1 12.25 19.25 22.75
5161 1 12.25 22.75 -26.25
5162 1 12.25 22.75 -22.75
5163 1 12.25 22.75 -19.25
5164 1 12.25 22.75 -15.75
5165 1 12.25 22.75 -12.25
5166 1 12.25 22.75 -8.75
5167 1 12.25 22.75 -5.25
5168 1 12.25 22.75 -1.75
5169 1 12.25 22.75 1.75
5170 1 12.25 22.75 5.25
5171 1 12.25 22.75 8.75
5172 1 12.25 22.75 12.25
5173 1 12.25 22.75 15.75
5174 1 12.25 22.75 19.25
5175 1 12.25 22.75 22.75
5176 1 14.0 -24.5 -24.5
5177 1 14.0 -24.5 -21.0
5178 1 14.0 -24.5 -17.5
5179 1 14.0 -24.5 -14.0
5180 1 14.0 -24.5 -10.5
5181 1 14.0 -24.5 -7.0
5182 1 14.0 -24.5 -3.5
5183 1 14.0 -24.5 0.0
5184 1 14.0 -24.5 3.5
5185 1 14.0 -24.5 7.0
5186 1 14.0 -24.5 10.5
5187 1 14.0 -24.5 14.0
5188 1 14.0 -24.5 17.5
5189 1 14.0 -24.5 21.0
5190 1 14.0 -24.5 24.5
5191 1 14.0 -21.0 -24.5
5192 1 14.0 -21.0 -21.0
5193 1 14.0 -21.0 -17.5
5194 1 14.0 -21.0 -14.0
5195 1 14.0 -21.0 -10.5
5196 1 14.0 -21.0 -7.0
5197 1 14.0 -21.0 -3.5
5198 1 14.0 -21.0 0.0
5199 1 14.0 -21.0 3.5
5200 1 14.0 -21.0 7.0
5201 1 14.0 -21.0 10.5
5202 1 14.0 -21.0 14.0
5203 1 14.0 -21.0 17.5
5204 1 14.0 -21.0 21.0
5205 1 14.0 -21.0 24.5
5206 1 14.0 -17.5 -24.5
5207 1 14.0 -17.5 -21.0
5208 1 14.0 -17.5 -17.5
5209 1 14.0 -17.5 -14.0
5210 1 14.0 -17.5 -10.5
5211 1 14.0 -17.5 -7.0
5212 1 14.0 -17.5 -3.5
5213 1 14.0 -17.5 0.0
5214 1 14.0 -17.5 3.5
5215 1 14.0 -17.5 7.0
5216 1 14.0 -17.5 10.5
5217 1 14.0 -17.5 14.0
5218 1 14.0 -17.5 17.5
5219 1 14.0 -17.5 21.0
5220 1 14.0 -17.5 24.5
5221 1 14.0 -14.0 -24.5
5222 1 14.0 -14.0 -21.0
5223 1 14.0 -14.0 -17.5
5224 1 14.0 -14.0 -14.0
5225 1 14.0 -14.0 -10.5
5226 1 14.0 -14.0 -7.0
5227 1 14.0 -14.0 -3.5
5228 1 14.0 -14.0 0.0
5229 1 14.0 -14.0 3.5
5230 1 14.0 -14.0 7.0
5231 1 14.0 -14.0 10.5
5232 1 14.0 -14.0 14.0
5233 1 14.0 -14.0 17.5
5234 1 14.0 -14.0 21.0
5235 1 14.0 -14.0 24.5
5236 1 14.0 -10.5 -24.5
5237 1 14.0 -10.5 -21.0
5238 1 14.0 -10.5 -17.5
5239 1 14.0 -10.5 -14.0
5240 1 14.0 -10.5 -10.5
5241 1 14.0 -10.5 -7.0
5242 1 14.0 -10.5 -3.5
5243 1 14.0 -10.5 0.0
5244 1 14.0 -10.5 3.5
5245 1 14.0 -10.5 7.0
5246 1 14.0 -10.5 10.5
5247 1 14.0 -10.5 14.0
5248 1 14.0 -10.5 17.5
5249 1 14.0 -10.5 21.0
5250 1 14.0 -10.5 24.5
5251 1 14.0 -7.0 -24.5
5252 1 14.0 -7.0 -21.0
5253 1 14.0 -7.0 -17.5
5254 1 14.0 -7.0 -14.0
5255 1 14.0 -7.0 -10.5
5256 1 14.0 -7.0 -7.0
5257 1 14.0 -7.0 -3.5
5258 1 14.0 -7.0 0.0
5259 1 14.0 -7.0 3.5
5260 1 14.0 -7.0 7.0
5261 1 14.0 -7.0 10.5
5262 1 14.0 -7.0 14.0
5263 1 14.0 -7.0 17.5
5264 1 14.0 -7.0 21.0
5265 1 14.0 -7.0 24.5
5266 1 14.0 -3.5 -24.5
5267 1 14.0 -3.5 -21.0
5268 1 14.0 -3.5 -17.5
5269 1 14.0 -3.5 -14.0
5270 1 14.0 -3.5 -10.5
5271 1 14.0 -3.5 -7.0
5272 1 14.0 -3.5 -3.5
5273 1 14.0 -3.5 0.0
5274 1 14.0 -3.5 3.5
5275 1 14.0 -3.5 7.0
5276 1 14.0 -3.5 10.5
5277 1 14.0 -3.5 14.0
5278 1 14.0 -3.5 17.5
5279 1 14.0 -3.5 21.0
5280 1 14.0 -3.5 24.5
5281 1 14.0 0.0 -24.5
5282 1 14.0 0.0 -21.0
5283 1 14.0 0.0 -17.5
5284 1 14.0 0.0 -14.0
5285 1 14.0 0.0 -10.5
5286 1 14.0 0.0 -7.0
5287 1 14.0 0.0 -3.5
5288 1 14.0 0.0 0.0
5289 1 14.0 0.0 3.5
5290 1 14.0 0.0 7.0
5291 1 14.0 0.0 10.5
5292 1 14.0 0.0 14.0
5293 1 14.0 0.0 17.5
5294 1 14.0 0.0 21.0
5295 1 14.0 0.0 24.5
5296 1 14.0 3.5 -24.5
5297 1 14.0 3.5 -21.0
5298 1 14.0 3.5 -17.5
5299 1 14.0 3.5 -14.0
5300 1 14.0 3.5 -10.5
5301 1 14.0 3.5 -7.0
5302 1 14.0 3.5 -3.5
5303 1 14.0 3.5 0.0
5304 1 14.0 3.5 3.5
5305 1 14.0 3.5 7.0
5306 1 14.0 3.5 10.5
5307 1 14.0 3.5 14.0
5308 1 14.0 3.5 17.5
5309 1 14.0 3.5 21.0
5310 1 14.0 3.5 24.5
5311 1 14.0 7.0 -24.5
5312 1 14.0 7.0 -21.0
5313 1 14.0 7.0 -17.5
5314 1 14.0 7.0 -14.0
5315 1 14.0 7.0 -10.5
5316 1 14.0 7.0 -7.0
5317 1 14.0 7.0 -3.5
5318 1 14.0 7.0 0.0
5319 1 14.0 7.0 3.5
5320 1 14.0 7.0 7.0
5321 1 14.0 7.0 10.5
5322 1 14.0 7.0 14.0
5323 1 14.0 7.0 17.5
5324 1 14.0 7.0 21.0
5325 1 14.0 7.0 24.5
5326 1 14.0 10.5 -24.5
5327 1 14.0 10.5 -21.0
5328 1 14.0 10.5 -17.5
5329 1 14.0 10.5 -14.0
5330 1 14.0 10.5 -10.5
5331 1 14.0 10.5 -7.0
5332 1 14.0 10.5 -3.5
5333 1 14.0 10.5 0.0
5334 1 14.0 10.5 3.5
5335 1 14.0 10.5 7.0
5336 1 14.0 10.5 10.5
5337 1 14.0 10.5 14.0
5338 1 14.0 10.5 17.5
5339 1 14.0 10.5 21.0
5340 1 14.0 10.5 24.5
5341 1 14.0 14.0 -24.5
5342 1 14.0 14.0 -21.0
5343 1 14.0 14.0 -17.5
5344 1 14.0 14.0 -14.0
5345 1 14.0 14.0 -10.5
5346 1 14.0 14.0 -7.0
5347 1 14.0 14.0 -3.5
5348 1 14.0 14.0 0.0
5349 1 14.0 14.0 3.5
5350 1 14.0 14.0 7.0
5351 1 14.0 14.0 10.5
5352 1 14.0 14.0 14.0
5353 1 14.0 14.0 17.5
5354 1 14.0 14.0 21.0
5355 1 14.0 14.0 24.5
5356 1 14.0 17.5 -24.5
5357 1 14.0 17.5 -21.0
5358 1 14.0 17.5 -17.5
5359 1 14.0 17.5 -14.0
5360 1 14.0 17.5 -10.5
5361 1 14.0 17.5 -7.0
5362 1 14.0 17.5 -3.5
5363 1 14.0 17.5 0.0
5364 1 14.0 17.5 3.5
5365 1 14.0 17.5 7.0
5366 1 14.0 17.5 10.5
5367 1 14.0 17.5 14.0
5368 1 14.0 17.5 17.5
5369 1 14.0 17.5 21.0
5370 1 14.0 17.5 24.5
5371 1 14.0 21.0 -24.5
5372 1 14.0 21.0 -21.0
5373 1 14.0 21.0 -17.5
5374 1 14.0 21.0 -14.0
5375 1 14.0 21.0 -10.5
5376 1 14.0 21.0 -7.0
5377 1 14.0 21.0 -3.5
5378 1 14.0 21.0 0.0
5379 1 14.0 21.0 3.5
5380 1 14.0 21.0 7.0
5381 1 14.0 21.0 10.5
5382 1 14.0 21.0 14.0
5383 1 14.0 21.0 17.5
5384 1 14.0 21.0 21.0
5385 1 14.0 21.0 24.5
5386 1 14.0 24.5 -24.5
5387 1 14.0 24.5 -21.0
5388 1 14.0 24.5 -17.5
5389 1 14.0 24.5 -14.0
5390 1 14.0 24.5 -10.5
5391 1 14.0 24.5 -7.0
5392 1 14.0 24.5 -3.5
5393 1 14.0 24.5 0.0
5394 1 14.0 24.5 3.5
5395 1 14.0 24.5 7.0
5396 1 14.0 24.5 10.5
5397 1 14.0 24.5 14.0
5398 1 14.0 24.5 17.5
5399 1 14.0 24.5 21.0
5400 1 14.0 24.5 24.5
5401 1 15.75 -26.25 -26.25
5402 1 15.75 -26.25 -22.75
5403 1 15.75 -26.25 -19.25
5404 1 15.75 -26.25 -15.75
5405 1 15.75 -26.25 -12.25
5406 1 15.75 -26.25 -8.75
5407 1 15.75 -26.25 -5.25
5408 1 15.75 -26.25 -1.75
5409 1 15.75 -26.25 1.75
5410 1 15.75 -26.25 5.25
5411 1 15.75 -26.25 8.75
5412 1 15.75 -26.25 12.25
5413 1 15.75 -26.25 15.75
5414 1 15.75 -26.25 19.25
5415 1 15.75 -26.25 22.75
5416 1 15.75 -22.75 -26.25
5417 1 15.75 -22.75 -22.75
5418 1 15.75 -22.75 -19.25
5419 1 15.75 -22.75 -15.75
5420 1 15.75 -22.75 -12.25
5421 1 15.75 -22.75 -8.75
5422 1 15.75 -22.75 -5.25
5423 1 15.75 -22.75 -1.75
5424 1 15.75 -22.75 1.75
5425 1 15.75 -22.75 5.25
5426 1 15.75 -22.75 8.75
5427 1 15.75 -22.75 12.25
5428 1 15.75 -22.75 15.75
5429 1 15.75 -22.75 19.25
5430 1 15.75 -22.75 22.75
5431 1 15.75 -19.25 -26.25
5432 1 15.75 -19.25 -22.75
5433 1 15.75 -19.25 -19.25
5434 1 15.75 -19.25 -15.75
5435 1 15.75 -19.25 -12.25
5436 1 15.75 -19.25 -8.75
5437 1 15.75 -19.25 -5.25
5438 1 15.75 -19.25 -1.75
5439 1 15.75 -19.25 1.75
5440 1 15.75 -19.25 5.25
5441 1 15.75 -19.25 8.75
5442 1 15.75 -19.25 12.25
5443 1 15.75 -19.25 15.75
5444 1 15.75 -19.25 19.25
5445 1 15.75 -19.25 22.75
5446 1 15.75 -15.75 -26.25
5447 1 15.75 -15.75 -22.75
5448 1 15.75 -15.75 -19.25
5449 1 15.75 -15.75 -15.75
5450 1 15.75 -15.75 -12.25
5451 1 15.75 -15.75 -8.75
5452 1 15.75 -15.75 -5.25
5453 1 15.75 -15.75 -1.75
5454 1 15.75 -15.75 1.75
5455 1 15.75 -15.75 5.25
5456 1 15.75 -15.75 8.75
5457 1 15.75 -15.75 12.25
5458 1 15.75 -15.75 15.75
5459 1 15.75 -15.75 19.25
5460 1 15.75 -15.75 22.75
5461 1 15.75 -12.25 -26.25
5462 1 15.75 -12.25 -22.75
5463 1 15.75 -12.25 -19.25
5464 1 15.75 -12.25 -15.75
5465 1 15.75 -12.25 -12.25
5466 1 15.75 -12.25 -8.75
5467 1 15.75 -12.25 -5.25
5468 1 15.75 -12.25 -1.75
5469 1 15.75 -12.25 1.75
5470 1 15.75 -12.25 5.25
5471 1 15.75 -12.25 8.75
5472 1 15.75 -12.25 12.25
5473 1 15.75 -12.25 15.75
5474 1 15.75 -12.25 19.25
5475 1 15.75 -12.25 22.75
5476 1 15.75 -8.75 -26.25
5477 1 15.75 -8.75 -22.75
5478 1 15.75 -8.75 -19.25
5479 1 15.75 -8.75 -15.75
5480 1 15.75 -8.75 -12.25
5481 1 15.75 -8.75 -8.75
5482 1 15.75 -8.75 -5.25
5483 1 15.75 -8.75 -1.75
5484 1 15.75 -8.75 1.75
5485 1 15.75 -8.75 5.25
5486 1 15.75 -8.75 8.75
5487 1 15.75 -8.75 12.25
5488 1 15.75 -8.75 15.75
5489 1 15.75 -8.75 19.25
5490 1 15.75 -8.75 22.75
5491 1 15.75 -5.25 -26.25
5492 1 15.75 -5.25 -22.75
5493 1 15.75 -5.25 -19.25
5494 1 15.75 -5.25 -15.75
5495 1 15.75 -5.25 -12.25
5496 1 15.75 -5.25 -8.75
5497 1 15.75 -5.25 -5.25
5498 1 15.75 -5.25 -1.75
5499 1 15.75 -5.25 1.75
5500 1 15.75 -5.25 5.25
5501 1 15.75 -5.25 8.75
5502 1 15.75 -5.25 12.25
5503 1 15.75 -5.25 15.75
5504 1 15.75 -5.25 19.25
5505 1 15.75 -5.25 22.75
5506 1 15.75 -1.75 -26.25
5507 1 15.75 -1.75 -22.75
5508 1 15.75 -1.75 -19.25
5509 1 15.75 -1.75 -15.75
5510 1 15.75 -1.75 -12.25
5511 1 15.75 -1.75 -8.75
5512 1 15.75 -1.75 -5.25
5513 1 15.75 -1.75 -1.75
5514 1 15.75 -1.75 1.75
5515 1 15.75 -1.75 5.25
5516 1 15.75 -1.75 8.75
5517 1 15.75 -1.75 12.25
5518 1 15.75 -1.75 15.75
5519 1 15.75 -1.75 19.25
5520 1 15.75 -1.75 22.75
5521 1 15.75 1.75 -26.25
5522 1 15.75 1.75 -22.75
5523 1 15.75 1.75 -19.25
5524 1 15.75 1.75 -15.75
5525 1 15.75 1.75 -12.25
5526 1 15.75 1.75 -8.75
5527 1 15.75 1.75 -5.25
5528 1 15.75 1.75 -1.75
5529 1 15.75 1.75 1.75
5530 1 15.75 1.75 5.25
5531 1 15.75 1.75 8.75
5532 1 15.75 1.75 12.25
5533 1 15.75 1.75 15.75
5534 1 15.75 1.75 19.25
5535 1 15.75 1.75 22.75
5536 1 15.75 5.25 -26.25
5537 1 15.75 5.25 -22.75
5538 1 15.75 5.25 -19.25
5539 1 15.75 5.25 -15.75
5540 1 15.75 5.25 -12.25
5541 1 15.75 5.25 -8.75
5542 1 15.75 5.25 -5.25
5543 1 15.75 5.25 -1.75
5544 1 15.75 5.25 1.75
5545 1 15.75 5.25 5.25
5546 1 15.75 5.25 8.75
5547 1 15.75 5.25 12.25
5548 1 15.75 5.25 15.75
5549 1 15.75 5.25 19.25
5550 1 15.75 5.25 22.75
5551 1 15.75 8.75 -26.25
5552 1 15.75 8.75 -22.75
5553 1 15.75 8.75 -19.25
5554 1 15.75 8.75 -15.75
5555 1 15.75 8.75 -12.25
5556 1 15.75 8.75 -8.75
5557 1 15.75 8.75 -5.25
5558 1 15.75 8.75 -1.75
5559 1 15.75 8.75 1.75
5560 1 15.75 8.75 5.25
5561 1 15.75 8.75 8.75
5562 1 15.75 8.75 12.25
5563 1 15.75 8.75 15.75
5564 1 15.75 8.75 19.25
5565 1 15.75 8.75 22.75
5566 1 15.75 12.25 -26.25
5567 1 15.75 12.25 -22.75
5568 1 15.75 12.25 -19.25
5569 1 15.75 12.25 -15.75
5570 1 15.75 12.25 -12.25
5571 1 15.75 12.25 -8.75
5572 1 15.75 12.25 -5.25
5573 1 15.75 12.25 -1.75
5574 1 15.75 12.25 1.75
5575 1 15.75 12.25 5.25
5576 1 15.75 12.25 8.75
5577 1 15.75 12.25 12.25
5578 1 15.75 12.25 15.75
5579 1 15.75 12.25 19.25
5580 1 15.75 12.25 22.75
5581 1 15.75 15.75 -26.25
5582 1 15.75 15.75 -22.75
5583 1 15.75 15.75 -19.25
5584 1 15.75 15.75 -15.75
5585 1 15.75 15.75 -12.25
5586 1 15.75 15.75 -8.75
5587 1 15.75 15.75 -5.25
5588 1 15.75 15.75 -1.75
5589 1 15.75 15.75 1.75
5590 1 15.75 15.75 5.25
5591 1 15.75 15.75 8.75
5592 1 15.75 15.75 12.25
5593 1 15.75 15.75 15.75
5594 1 15.75 15.75 19.25
5595 1 15.75 15.75 22.75
5596 1 15.75 19.25 -26.25
5597 1 15.75 19.25 -22.75
5598 1 15.75 19.25 -19.25
5599 1 15.75 19.25 -15.75
5600 1 15.75 19.25 -12.25
5601 1 15.75 19.25 -8.75
5602 1 15.75 19.25 -5.25
5603 1 15.75 19.25 -1.75
5604 1 15.75 19.25 1.75
5605 1 15.75 19.25 5.25
5606 1 15.75 19.25 8.75
5607 1 15.75 19.25 12.25
5608 1 15.75 19.25 15.75
5609 1 15.75 19.25 19.25
5610 1 15.75 19.25 22.75
5611 1 15.75 22.75 -26.25
5612 1 15.75 22.75 -22.75
5613 1 15.75 22.75 -19.25
5614 1 15.75 22.75 -15.75
5615 1 15.75 22.75 -12.25
5616 1 15.75 22.75 -8.75
5617 1 15.75 22.75 -5.25
5618 1 15.75 22.75 -1.75
5619 1 15.75 22.75 1.75
5620 1 15.75 22.75 5.25
5621 1 15.75 22.75 8.75
5622 1 15.75 22.75 12.25
5623 1 15.75 22.75 15.75
5624 1 15.75 22.75 19.25
5625 1 15.75 22.75 22.75
5626 1 17.5 -24.5 -24.5
5627 1 17.5 -24.5 -21.0
5628 1 17.5 -24.5 -17.5
5629 1 17.5 -24.5 -14.0
5630 1 17.5 -24.5 -10.5
5631 1 17.5 -24.5 -7.0
5632 1 17.5 -24.5 -3.5
5633 1 17.5 -24.5 0.0
5634 1 17.5 -24.5 3.5
5635 1 17.5 -24.5 7.0
5636 1 17.5 -24.5 10.5
5637 1 17.5 -24.5 14.0
5638 1 17.5 -24.5 17.5
5639 1 17.5 -24.5 21.0
5640 1 17.5 -24.5 24.5
5641 1 17.5 -21.0 -24.5
5642 1 17.5 -21.0 -21.0
5643 1 17.5 -21.0 -17.5
5644 1 17.5 -21.0 -14.0
5645 1 17.5 -21.0 -10.5
5646 1 17.5 -21.0 -7.0
5647 1 17.5 -21.0 -3.5
5648 1 17.5 -21.0 0.0
5649 1 17.5 -21.0 3.5
5650 1 17.5 -21.0 7.0
5651 1 17.5 -21.0 10.5
5652 1 17.5 -21.0 14.0
5653 1 17.5 -21.0 17.5
5654 1 17.5 -21.0 21.0
5655 1 17.5 -21.0 24.5
5656 1 17.5 -17.5 -24.5
5657 1 17.5 -17.5 -21.0
5658 1 17.5 -17.5 -17.5
5659 1 17.5 -17.5 -14.0
5660 1 17.5 -17.5 -10.5
5661 1 17.5 -17.5 -7.0
5662 1 17.5 -17.5 -3.5
5663 1 17.5 -17.5 0.0
5664 1 17.5 -17.5 3.5
5665 1 17.5 -17.5 7.0
5666 1 17.5 -17.5 10.5
5667 1 17.5 -17.5 14.0
5668 1 17.5 -17.5 17.5
5669 1 17.5 -17.5 21.0
5670 1 17.5 -17.5 24.5
5671 1 17.5 -14.0 -24.5
5672 1 17.5 -14.0 -21.0
5673 1 17.5 -14.0 -17.5
5674 1 17.5 -14.0 -14.0
5675 1 17.5 -14.0 -10.5
5676 1 17.5 -14.0 -7.0
5677 1 17.5 -14.0 -3.5
5678 1 17.5 -14.0 0.0
5679 1 17.5 -14.0 3.5
5680 1 17.5 -14.0 7.0
5681 1 17.5 -14.0 10.5
5682 1 17.5 -14.0 14.0
5683 1 17.5 -14.0 17.5
5684 1 17.5 -14.0 21.0
5685 1 17.5 -14.0 24.5
5686 1 17.5 -10.5 -24.5
5687 1 17.5 -10.5 -21.0
5688 1 17.5 -10.5 -17.5
5689 1 17.5 -10.5 -14.0
5690 1 17.5 -10.5 -10.5
5691 1 17.5 -10.5 -7.0
5692 1 17.5 -10.5 -3.5
5693 1 17.5 -10.5 0.0
5694 1 17.5 -10.5 3.5
5695 1 17.5 -10.5 7.0
5696 1 17.5 -10.5 10.5
5697 1 17.5 -10.5 14.0
5698 1 17.5 -10.5 17.5
5699 1 17.5 -10.5 21.0
5700 1 17.5 -10.5 24.5
5701 1 17.5 -7.0 -24.5
5702 1 17.5 -7.0 -21.0
5703 1 17.5 -7.0 -17.5
5704 1 17.5 -7.0 -14.0
5705 1 17.5 -7.0 -10.5
5706 1 17.5 -7.0 -7.0
5707 1 17.5 -7.0 -3.5
5708 1 17.5 -7.0 0.0
5709 1 17.5 -7.0 3.5
5710 1 17.5 -7.0 7.0
5711 1 17.5 -7.0 10.5
5712 1 17.5 -7.0 14.0
5713 1 17.5 -7.0 17.5
5714 1 17.5 -7.0 21.0
5715 1 17.5 -7.0 24.5
5716 1 17.5 -3.5 -24.5
5717 1 17.5 -3.5 -21.0
5718 1 17.5 -3.5 -17.5
5719 1 17.5 -3.5 -14.0
5720 1 17.5 -3.5 -10.5
5721 1 17.5 -3.5 -7.0
5722 1 17.5 -3.5 -3.5
5723 1 17.5 -3.5 0.0
5724 1 17.5 -3.5 3.5
5725 1 17.5 -3.5 7.0
5726 1 17.5 -3.5 10.5
5727 1 17.5 -3.5 14.0
5728 1 17.5 -3.5 17.5
5729 1 17.5 -3.5 21.0
5730 1 17.5 -3.5 24.5
5731 1 17.5 0.0 -24.5
5732 1 17.5 0.0 -21.0
5733 1 17.5 0.0 -17.5
5734 1 17.5 0.0 -14.0
5735 1 17.5 0.0 -10.5
5736 1 17.5 0.0 -7.0
5737 1 17.5 0.0 -3.5
5738 1 17.5 0.0 0.0
5739 1 17.5 0.0 3.5
5740 1 17.5 0.0 7.0
5741 1 17.5 0.0 10.5
5742 1 17.5 0.0 14.0
5743 1 17.5 0.0 17.5
5744 1 17.5 0.0 21.0
5745 1 17.5 0.0 24.5
5746 1 17.5 3.5 -24.5
5747 1 17.5 3.5 -21.0
5748 1 17.5 3.5 -17.5
5749 1 17.5 3.5 -14.0
5750 1 17.5 3.5 -10.5
5751 1 17.5 3.5 -7.0
5752 1 17.5 3.5 -3.5
5753 1 17.5 3.5 0.0
5754 1 17.5 3.5 3.5
5755 1 17.5 3.5 7.0
5756 1 17.5 3.5 10.5
5757 1 17.5 3.5 14.0
5758 1 17.5 3.5 17.5
5759 1 17.5 3.5 21.0
5760 1 17.5 3.5 24.5
5761 1 17.5 7.0 -24.5
5762 1 17.5 7.0 -21.0
5763 1 17.5 7.0 -17.5
5764 1 17.5 7.0 -14.0
5765 1 17.5 7.0 -10.5
5766 1 17.5 7.0 -7.0
5767 1 17.5 7.0 -3.5
5768 1 17.5 7.0 0.0
5769 1 17.5 7.0 3.5
5770 1 17.5 7.0 7.0
5771 1 17.5 7.0 10.5
5772 1 17.5 7.0 14.0
5773 1 17.5 7.0 17.5
5774 1 17.5 7.0 21.0
5775 1 17.5 7.0 24.5
5776 1 17.5 10.5 -24.5
5777 1 17.5 10.5 -21.0
5778 1 17.5 10.5 -17.5
5779 1 17.5 10.5 -14.0
5780 1 17.5 10.5 -10.5
5781 1 17.5 10.5 -7.0
5782 1 17.5 10.5 -3.5
5783 1 17.5 10.5 0.0
5784 1 17.5 10.5 3.5
5785 1 17.5 10.5 7.0
5786 1 17.5 10.5 10.5
5787 1 17.5 10.5 14.0
5788 1 17.5 10.5 17.5
5789 1 17.5 10.5 21.0
5790 1 17.5 10.5 24.5
5791 1 17.5 14.0 -24.5
5792 1 17.5 14.0 -21.0
5793 1 17.5 14.0 -17.5
5794 1 17.5 14.0 -14.0
5795 1 17.5 14.0 -10.5
5796 1 17.5 14.0 -7.0
5797 1 17.5 14.0 -3.5
5798 1 17.5 14.0 0.0
5799 1 17.5 14.0 3.5
5800 1 17.5 14.0 7.0
5801 1 17.5 14.0 10.5
5802 1 17.5 14.0 14.0
5803 1 17.5 14.0 17.5
5804 1 17.5 14.0 21.0
5805 1 17.5 14.0 24.5
5806 1 17.5 17.5 -24.5
5807 1 17.5 17.5 -21.0
5808 1 17.5 17.5 -17.5
5809 1 17.5 17.5 -14.0
5810 1 17.5 17.5 -10.5
5811 1 17.5 17.5 -7.0
5812 1 17.5 17.5 -3.5
5813 1 17.5 17.5 0.0
5814 1 17.5 17.5 3.5
5815 1 17.5 17.5 7.0
5816 1 17.5 17.5 10.5
5817 1 17.5 17.5 14.0
5818 1 17.5 17.5 17.5
5819 1 17.5 17.5 21.0
5820 1 17.5 17.5 24.5
5821 1 17.5 21.0 -24.5
5822 1 17.5 21.0 -21.0
5823 1 17.5 21.0 -17.5
5824 1 17.5 21.0 -14.0
5825 1 17.5 21.0 -10.5
5826 1 17.5 21.0 -7.0
5827 1 17.5 21.0 -3.5
5828 1 17.5 21.0 0.0
5829 1 17.5 21.0 3.5
5830 1 17.5 21.0 7.0
5831 1 17.5 21.0 10.5
5832 1 17.5 21.0 14.0
5833 1 17.5 21.0 17.5
5834 1 17.5 21.0 21.0
5835 1 17.5 21.0 24.5
5836 1 17.5 24.5 -24.5
5837 1 17.5 24.5 -21.0
5838 1 17.5 24.5 -17.5
5839 1 17.5 24.5 -14.0
5840 1 17.5 24.5 -10.5
5841 1 17.5 24.5 -7.0
5842 1 17.5 24.5 -3.5
5843 1 17.5 24.5 0.0
5844 1 17.5 24.5 3.5
5845 1 17.5 24.5 7.0
5846 1 17.5 24.5 10.5
5847 1 17.5 24.5 14.0
5848 1 17.5 24.5 17.5
5849 1 17.5 24.5 21.0
5850 1 17.5 24.5 24.5
5851 1 19.25 -26.25 -26.25
5852 1 19.25 -26.25 -22.75
5853 1 19.25 -26.25 -19.25
5854 1 19.25 -26.25 -15.75
5855 1 19.25 -26.25 -12.25
5856 1 19.25 -26.25 -8.75
5857 1 19.25 -26.25 -5.25
5858 1 19.25 -26.25 -1.75
5859 1 19.25 -26.25 1.75
5860 1 19.25 -26.25 5.25
5861 1 19.25 -26.25 8.75
5862 1 19.25 -26.25 12.25
5863 1 19.25 -26.25 15.75
5864 1 19.25 -26.25 19.25
5865 1 19.25 -26.25 22.75
5866 1 19.25 -22.75 -26.25
5867 1 19.25 -22.75 -22.75
5868 1 19.25 -22.75 -19.25
5869 1 19.25 -22.75 -15.75
5870 1 19.25 -22.75 -12.25
5871 1 19.25 -22.75 -8.75
5872 1 19.25 -22.75 -5.25
5873 1 19.25 -22.75 -1.75
5874 1 19.25 -22.75 1.75
5875 1 19.25 -22.75 5.25
5876 1 19.25 -22.75 8.75
5877 1 19.25 -22.75 12.25
5878 1 19.25 -22.75 15.75
5879 1 19.25 -22.75 19.25
5880 1 19.25 -22.75 22.75
5881 1 19.25 -19.25 -26.25
5882 1 19.25 -19.25 -22.75
5883 1 19.25 -19.25 -19.25
5884 1 19.25 -19.25 -15.75
5885 1 19.25 -19.25 -12.25
5886 1 19.25 -19.25 -8.75
5887 1 19.25 -19.25 -5.25
5888 1 19.25 -19.25 -1.75
5889 1 19.25 -19.25 1.75
5890 1 19.25 -19.25 5.25
5891 1 19.25 -19.25 8.75
5892 1 19.25 -19.25 12.25
5893 1 19.25 -19.25 15.75
5894 1 19.25 -19.25 19.25
5895 1 19.25 -19.25 22.75
5896 1 19.25 -15.75 -26.25
5897 1 19.25 -15.75 -22.75
5898 1 19.25 -15.75 -19.25
5899 1 19.25 -15.75 -15.75
5900 1 19.25 -15.75 -12.25
5901 1 19.25 -15.75 -8.75
5902 1 19.25 -15.75 -5.25
5903 1 19.25 -15.75 -1.75
5904 1 19.25 -15.75 1.75
5905 1 19.25 -15.75 5.25
5906 1 19.25 -15.75 8.75
5907 1 19.25 -15.75 12.25
5908 1 19.25 -15.75 15.75
5909 1 19.25 -15.75 19.25
5910 1 19.25 -15.75 22.75
5911 1 19.25 -12.25 -26.25
5912 1 19.25 -12.25 -22.75
5913 1 19.25 -12.25 -19.25
5914 1 19.25 -12.25 -15.75
5915 1 19.25 -12.25 -12.25
5916 1 19.25 -12.25 -8.75
5917 1 19.25 -12.25 -5.25
5918 1 19.25 -12.25 -1.75
5919 1 19.25 -12.25 1.75
5920 1 19.25 -12.25 5.25
5921 1 19.25 -12.25 8.75
5922 1 19.25 -12.25 12.25
5923 1 19.25 -12.25 15.75
5924 1 19.25 -12.25 19.25
5925 1 19.25 -12.25 22.75
5926 1 19.25 -8.75 -26.25
5927 1 19.25 -8.75 -22.75
5928 1 19.25 -8.75 -19.25
5929 1 19.25 -8.75 -15.75
5930 1 19.25 -8.75 -12.25
5931 1 19.25 -8.75 -8.75
5932 1 19.25 -8.75 -5.25
5933 1 19.25 -8.75 -1.75
5934 1 19.25 -8.75 1.75
5935 1 19.25 -8.75 5.25
5936 1 19.25 -8.75 8.75
5937 1 19.25 -8.75 12.25
5938 1 19.25 -8.75 15.75
5939 1 19.25 -8.75 19.25
5940 1 19.25 -8.75 22.75
5941 1 19.25 -5.25 -26.25
5942 1 19.25 -5.25 -22.75
5943 1 19.25 -5.25 -19.25
5944 1 19.25 -5.25 -15.75
5945 1 19.25 -5.25 -12.25
5946 1 19.25 -5.25 -8.75
5947 1 19.25 -5.25 -5.25
5948 1 19.25 -5.25 -1.75
5949 1 19.25 -5.25 1.75
5950 1 19.25 -5.25 5.25
5951 1 19.25 -5.25 8.75
5952 1 19.25 -5.25 12.25
5953 1 19.25 -5.25 15.75
5954 1 19.25 -5.25 19.25
5955 1 19.25 -5.25 22.75
5956 1 19.25 -1.75 -26.25
5957 1 19.25 -1.75 -22.75
5958 1 19.25 -1.75 -19.25
5959 1 19.25 -1.75 -15.75
5960 1 19.25 -1.75 -12.25
5961 1 19.25 -1.75 -8.75
5962 1 19.25 -1.75 -5.25
5963 1 19.25 -1.75 -1.75
5964 1 19.25 -1.75 1.75
5965 1 19.25 -1.75 5.25
5966 1 19.25 -1.75 8.75
5967 1 19.25 -1.75 12.25
5968 1 19.25 -1.75 15.75
5969 1 19.25 -1.75 19.25
5970 1 19.25 -1.75 22.75
5971 1 19.25 1.75 -26.25
5972 1 19.25 1.75 -22.75
5973 1 19.25 1.75 -19.25
5974 1 19.25 1.75 -15.75
5975 1 19.25 1.75 -12.25
5976 1 19.25 1.75 -8.75
5977 1 19.25 1.75 -5.25
5978 1 19.25 1.75 -1.75
5979 1 19.25 1.75 1.75
5980 1 19.25 1.75 5.25
5981 1 19.25 1.75 8.75
5982 1 19.25 1.75 12.25
5983 1 19.25 1.75 15.75
5984 1 19.25 1.75 19.25
5985 1 19.25 1.75 22.75
5986 1 19.25 5.25 -26.25
5987 1 19.25 5.25 -22.75
5988 1 19.25 5.25 -19.25
5989 1 19.25 5.25 -15.75
5990 1 19.25 5.25 -12.25
5991 1 19.25 5.25 -8.75
5992 1 19.25 5.25 -5.25
5993 1 19.25 5.25 -1.75
5994 1 19.25 5.25 1.75
5995 1 19.25 5.25 5.25
5996 1 19.25 5.25 8.75
5997 1 19.25 5.25 12.25
5998 1 19.25 5.25 15.75
5999 1 19.25 5.25 19.25
6000 1 19.25 5.25 22.75
6001 1 19.25 8.75 -26.25
6002 1 19.25 8.75 -22.75
6003 1 19.25 8.75 -19.25
6004 1 19.25 8.75 -15.75
6005 1 19.25 8.75 -12.25
6006 1 19.25 8.75 -8.75
6007 1 19.25 8.75 -5.25
6008 1 19.25 8.75 -1.75
6009 1 19.25 8.75 1.75
6010 1 19.25 8.75 5.25
6011 1 19.25 8.75 8.75
6012 1 19.25 8.75 12.25
6013 1 19.25 8.75 15.75
6014 1 19.25 8.75 19.25
6015 1 19.25 8.75 22.75
6016 1 19.25 12.25 -26.25
6017 1 19.25 12.25 -22.75
6018 1 19.25 12.25 -19.25
6019 1 19.25 12.25 -15.75
6020 1 19.25 12.25 -12.25
6021 1 19.25 12.25 -8.75
6022 1 19.25 12.25 -5.25
6023 1 19.25 12.25 -1.75
6024 1 19.25 12.25 1.75
6025 1 19.25 12.25 5.25
6026 1 19.25 12.25 8.75
6027 1 19.25 12.25 12.25
6028 1 19.25 12.25 15.75
6029 1 19.25 12.25 19.25
6030 1 19.25 12.25 22.75
6031 1 19.25 15.75 -26.25
6032 1 19.25 15.75 -22.75
6033 1 19.25 15.75 -19.25
6034 1 19.25 15.75 -15.75
6035 1 19.25 15.75 -12.25
6036 1 19.25 15.75 -8.75
6037 1 19.25 15.75 -5.25
6038 1 19.25 15.75 -1.75
6039 1 19.25 15.75 1.75
6040 1 19.25 15.75 5.25
6041 1 19.25 15.75 8.75
6042 1 19.25 15.75 12.25
6043 1 19.25 15.75 15.75
6044 1 19.25 15.75 19.25
6045 1 19.25 15.75 22.75
6046 1 19.25 19.25 -26.25
6047 1 19.25 19.25 -22.75
6048 1 19.25 19.25 -19.25
6049 1 19.25 19.25 -15.75
6050 1 19.25 19.25 -12.25
6051 1 19.25 19.25 -8.75
6052 1 19.25 19.25 -5.25
6053 1 19.25 19.25 -1.75
6054 1 19.25 19.25 1.75
6055 1 19.25 19.25 5.25
6056 1 19.25 19.25 8.75
6057 1 19.25 19.25 12.25
6058 1 19.25 19.25 15.75
6059 1 19.25 19.25 19.25
6060 1 19.25 19.25 22.75
6061 1 19.25 22.75 -26.25
6062 1 19.25 22.75 -22.75
6063 1 19.25 22.75 -19.25
6064 1 19.25 22.75 -15.75
6065 1 19.25 22.75 -12.25
6066 1 19.25 22.75 -8.75
6067 1 19.25 22.75 -5.25
6068 1 19.25 22.75 -1.75
6069 1 19.25 22.75 1.75
6070 1 19.25 22.75 5.25
6071 1 19.25 22.75 8.75
6072 1 19.25 22.75 12.25
6073 1 19.25 22.75 15.75
6074 1 19.25 22.75 19.25
6075 1 19.25 22.75 22.75
6076 1 21.0 -24.5 -24.5
6077 1 21.0 -24.5 -21.0
6078 1 21.0 -24.5 -17.5
6079 1 21.0 -24.5 -14.0
6080 1 21.0 -24.5 -10.5
6081 1 21.0 -24.5 -7.0
6082 1 21.0 -24.5 -3.5
6083 1 21.0 -24.5 0.0
6084 1 21.0 -24.5 3.5
6085 1 21.0 -24.5 7.0
6086 1 21.0 -24.5 10.5
6087 1 21.0 -24.5 14.0
6088 1 21.0 -24.5 17.5
6089 1 21.0 -24.5 21.0
6090 1 21.0 -24.5 24.5
6091 1 21.0 -21.0 -24.5
6092 1 21.0 -21.0 -21.0
6093 1 21.0 -21.0 -17.5
6094 1 21.0 -21.0 -14.0
6095 1 21.0 -21.0 -10.5
6096 1 21.0 -21.0 -7.0
6097 1 21.0 -21.0 -3.5
6098 1 21.0 -21.0 0.0
6099 1 21.0 -21.0 3.5
6100 1 21.0 -21.0 7.0
6101 1 21.0 -21.0 10.5
6102 1 21.0 -21.0 14.0
6103 1 21.0 -21.0 17.5
6104 1 21.0 -21.0 21.0
6105 1 21.0 -21.0 24.5
6106 1 21.0 -17.5 -24.5
6107 1 21.0 -17.5 -21.0
6108 1 21.0 -17.5 -17.5
6109 1 21.0 -17.5 -14.0
6110 1 21.0 -17.5 -10.5
6111 1 21.0 -17.5 -7.0
6112 1 21.0 -17.5 -3.5
6113 1 21.0 -17.5 0.0
6114 1 21.0 -17.5 3.5
6115 1 21.0 -17.5 7.0
6116 1 21.0 -17.5 10.5
6117 1 21.0 -17.5 14.0
6118 1 21.0 -17.5 17.5
6119 1 21.0 -17.5 21.0
6120 1 21.0 -17.5 24.5
6121 1 21.0 -14.0 -24.5
6122 1 21.0 -14.0 -21.0
6123 1 21.0 -14.0 -17.5
6124 1 21.0 -14.0 -14.0
6125 1 21.0 -14.0 -10.5
6126 1 21.0 -14.0 -7.0
6127 1 21.0 -14.0 -3.5
6128 1 21.0 -14.0 0.0
6129 1 21.0 -14.0 3.5
6130 1 21.0 -14.0 7.0
6131 1 21.0 -14.0 10.5
6132 1 21.0 -14.0 14.0
6133 1 21.0 -14.0 17.5
6134 1 21.0 -14.0 21.0
6135 1 21.0 -14.0 24.5
6136 1 21.0 -10.5 -24.5
6137 1 21.0 -10.5 -21.0
6138 1 21.0 -10.5 -17.5
6139 1 21.0 -10.5 -14.0
6140 1 21.0 -10.5 -10.5
6141 1 21.0 -10.5 -7.0
6142 1 21.0 -10.5 -3.5
6143 1 21.0 -10.5 0.0
6144 1 21.0 -10.5 3.5
6145 1 21.0 -10.5 7.0
6146 1 21.0 -10.5 10.5
6147 1 21.0 -10.5 14.0
6148 1 21.0 -10.5 17.5
6149 1 21.0 -10.5 21.0
6150 1 21.0 -10.5 24.5
6151 1 21.0 -7.0 -24.5
6152 1 21.0 -7.0 -21.0
6153 1 21.0 -7.0 -17.5
6154 1 21.0 -7.0 -14.0
6155 1 21.0 -7.0 -10.5
6156 1 21.0 -7.0 -7.0
6157 1 21.0 -7.0 -3.5
6158 1 21.0 -7.0 0.0
6159 1 21.0 -7.0 3.5
6160 1 21.0 -7.0 7.0
6161 1 21.0 -7.0 10.5
6162 1 21.0 -7.0 14.0
6163 1 21.0 -7.0 17.5
6164 1 21.0 -7.0 21.0
6165 1 21.0 -7.0 24.5
6166 1 21.0 -3.5 -24.5
6167 1 21.0 -3.5 -21.0
6168 1 21.0 -3.5 -17.5
6169 1 21.0 -3.5 -14.0
6170 1 21.0 -3.5 -10.5
6171 1 21.0 -3.5 -7.0
6172 1 21.0 -3.5 -3.5
6173 1 21.0 -3.5 0.0
6174 1 21.0 -3.5 3.5
6175 1 21.0 -3.5 7.0
6176 1 21.0 -3.5 10.5
6177 1 21.0 -3.5 14.0
6178 1 21.0 -3.5 17.5
6179 1 21.0 -3.5 21.0
6180 1 21.0 -3.5 24.5
6181 1 21.0 0.0 -24.5
6182 1 21.0 0.0 -21.0
6183 1 21.0 0.0 -17.5
6184 1 21.0 0.0 -14.0
6185 1 21.0 0.0 -10.5
6186 1 21.0 0.0 -7.0
6187 1 21.0 0.0 -3.5
6188 1 21.0 0.0 0.0
6189 1 21.0 0.0 3.5
6190 1 21.0 0.0 7.0
6191 1 21.0 0.0 10.5
6192 1 21.0 0.0 14.0
6193 1 21.0 0.0 17.5
6194 1 21.0 0.0 21.0
6195 1 21.0 0.0 24.5
6196 1 21.0 3.5 -24.5
6197 1 21.0 3.5 -21.0
6198 1 21.0 3.5 -17.5
6199 1 21.0 3.5 -14.0
6200 1 21.0 3.5 -10.5
6201 1 21.0 3.5 -7.0
6202 1 21.0 3.5 -3.5
6203 1 21.0 3.5 0.0
6204 1 21.0 3.5 3.5
6205 1 21.0 3.5 7.0
6206 1 21.0 3.5 10.5
6207 1 21.0 3.5 14.0
6208 1 21.0 3.5 17.5
6209 1 21.0 3.5 21.0
6210 1 21.0 3.5 24.5
6211 1 21.0 7.0 -24.5
6212 1 21.0 7.0 -21.0
6213 1 21.0 7.0 -17.5
6214 1 21.0 7.0 -14.0
6215 1 21.0 7.0 -10.5
6216 1 21.0 7.0 -7.0
6217 1 21.0 7.0 -3.5
6218 1 21.0 7.0 0.0
6219 1 21.0 7.0 3.5
6220 1 21.0 7.0 7.0
6221 1 21.0 7.0 10.5
6222 1 21.0 7.0 14.0
6223 1 21.0 7.0 17.5
6224 1 21.0 7.0 21.0
6225 1 21.0 7.0 24.5
6226 1 21.0 10.5 -24.5
6227 1 21.0 10.5 -21.0
6228 1 21.0 10.5 -17.5
6229 1 21.0 10.5 -14.0
6230 1 21.0 10.5 -10.5
6231 1 21.0 10.5 -7.0
6232 1 21.0 10.5 -3.5
6233 1 21.0 10.5 0.0
6234 1 21.0 10.5 3.5
6235 1 21.0 10.5 7.0
6236 1 21.0 10.5 10.5
6237 1 21.0 10.5 14.0
6238 1 21.0 10.5 17.5
6239 1 21.0 10.5 21.0
6240 1 21.0 10.5 24.5
6241 1 21.0 14.0 -24.5
6242 1 21.0 14.0 -21.0
6243 1 21.0 14.0 -17.5
6244 1 21.0 14.0 -14.0
6245 1 21.0 14.0 -10.5
6246 1 21.0 14.0 -7.0
6247 1 21.0 14.0 -3.5
6248 1 21.0 14.0 0.0
6249 1 21.0 14.0 3.5
6250 1 21.0 14.0 7.0
6251 1 21.0 14.0 10.5
6252 1 21.0 14.0 14.0
6253 1 21.0 14.0 17.5
6254 1 21.0 14.0 21.0
6255 1 21.0 14.0 24.5
6256 1 21.0 17.5 -24.5
6257 1 21.0 17.5 -21.0
6258 1 21.0 17.5 -17.5
6259 1 21.0 17.5 -14.0
6260 1 21.0 17.5 -10.5
6261 1 21.0 17.5 -7.0
6262 1 21.0 17.5 -3.5
6263 1 21.0 17.5 0.0
6264 1 21.0 17.5 3.5
6265 1 21.0 17.5 7.0
6266 1 21.0 17.5 10.5
6267 1 21.0 17.5 14.0
6268 1 21.0 17.5 17.5
6269 1 21.0 17.5 21.0
6270 1 21.0 17.5 24.5
6271 1 21.0 21.0 -24.5
6272 1 21.0 21.0 -21.0
6273 1 21.0 21.0 -17.5
6274 1 21.0 21.0 -14.0
6275 1 21.0 21.0 -10.5
6276 1 21.0 21.0 -7.0
6277 1 21.0 21.0 -3.5
6278 1 21.0 21.0 0.0
6279 1 21.0 21.0 3.5
6280 1 21.0 21.0 7.0
6281 1 21.0 21.0 10.5
6282 1 21.0 21.0 14.0
6283 1 21.0 21.0 17.5
6284 1 21.0 21.0 21.0
6285 1 21.0 21.0 24.5
6286 1 21.0 24.5 -24.5
6287 1 21.0 24.5 -21.0
6288 1 21.0 24.5 -17.5
6289 1 21.0 24.5 -14.0
6290 1 21.0 24.5 -10.5
6291 1 21.0 24.5 -7.0
6292 1 21.0 24.5 -3.5
6293 1 21.0 24.5 0.0
6294 1 21.0 24.5 3.5
6295 1 21.0 24.5 7.0
6296 1 21.0 24.5 10.5
6297 1 21.0 24.5 14.0
6298 1 21.0 24.5 17.5
6299 1 21.0 24.5 21.0
6300 1 21.0 24.5 24.5
6301 1 22.75 -26.25 -26.25
6302 1 22.75 -26.25 -22.75
6303 1 22.75 -26.25 -19.25
6304 1 22.75 -26.25 -15.75
6305 1 22.75 -26.25 -12.25
6306 1 22.75 -26.25 -8.75
6307 1 22.75 -26.25 -5.25
6308 1 22.75 -26.25 -1.75
6309 1 22.75 -26.25 1.75
6310 1 22.75 -26.25 5.25
6311 1 22.75 -26.25 8.75
6312 1 22.75 -26.25 12.25
6313 1 22.75 -26.25 15.75
6314 1 22.75 -26.25 19.25
6315 1 22.75 -26.25 22.75
6316 1 22.75 -22.75 -26.25
6317 1 22.75 -22.75 -22.75
6318 1 22.75 -22.75 -19.25
6319 1 22.75 -22.75 -15.75
6320 1 22.75 -22.75 -12.25
6321 1 22.75 -22.75 -8.75
6322 1 22.75 -22.75 -5.25
6323 1 22.75 -22.75 -1.75
6324 1 22.75 -22.75 1.75
6325 1 22.75 -22.75 5.25
6326 1 22.75 -22.75 8.75
6327 1 22.75 -22.75 12.25
6328 1 22.75 -22.75 15.75
6329 1 22.75 -22.75 19.25
6330 1 22.75 -22.75 22.75
6331 1 22.75 -19.25 -26.25
6332 1 22.75 -19.25 -22.75
6333 1 22.75 -19.25 -19.25
6334 1 22.75 -19.25 -15.75
6335 1 22.75 -19.25 -12.25
6336 1 22.75 -19.25 -8.75
6337 1 22.75 -19.25 -5.25
6338 1 22.75 -19.25 -1.75
6339 1 22.75 -19.25 1.75
6340 1 22.75 -19.25 5.25
6341 1 22.75 -19.25 8.75
6342 1 22.75 -19.25 12.25
6343 1 22.75 -19.25 15.75
6344 1 22.75 -19.25 19.25
6345 1 22.75 -19.25 22.75
6346 1 22.75 -15.75 -26.25
6347 1 22.75 -15.75 -22.75
6348 1 22.75 -15.75 -19.25
6349 1 22.75 -15.75 -15.75
6350 1 22.75 -15.75 -12.25
6351 1 22.75 -15.75 -8.75
6352 1 22.75 -15.75 -5.25
6353 1 22.75 -15.75 -1.75
6354 1 22.75 -15.75 1.75
6355 1 22.75 -15.75 5.25
6356 1 22.75 -15.75 8.75
6357 1 22.75 -15.75 12.25
6358 1 22.75 -15.75 15.75
6359 1 22.75 -15.75 19.25
6360 1 22.75 -15.75 22.75
6361 1 22.75 -12.25 -26.25
6362 1 22.75 -12.25 -22.75
6363 1 22.75 -12.25 -19.25
6364 1 22.75 -12.25 -15.75
6365 1 22.75 -12.25 -12.25
6366 1 22.75 -12.25 -8.75
6367 1 22.75 -12.25 -5.25
6368 1 22.75 -12.25 -1.75
6369 1 22.75 -12.25 1.75
6370 1 22.75 -12.25 5.25
6371 1 22.75 -12.25 8.75
6372 1 22.75 -12.25 12.25
6373 1 22.75 -12.25 15.75
6374 1 22.75 -12.25 19.25
6375 1 22.75 -12.25 22.75
6376 1 22.75 -8.75 -26.25
6377 1 22.75 -8.75 -22.75
6378 1 22.75 -8.75 -19.25
6379 1 22.75 -8.75 -15.75
6380 1 22.75 -8.75 -12.25
6381 1 22.75 -8.75 -8.75
6382 1 22.75 -8.75 -5.25
6383 1 22.75 -8.75 -1.75
6384 1 22.75 -8.75 1.75
6385 1 22.75 -8.75 5.25
6386 1 22.75 -8.75 8.75
6387 1 22.75 -8.75 12.25
6388 1 22.75 -8.75 15.75
6389 1 22.75 -8.75 19.25
6390 1 22.75 -8.75 22.75
6391 1 22.75 -5.25 -26.25
6392 1 22.75 -5.25 -22.75
6393 1 22.75 -5.25 -19.25
6394 1 22.75 -5.25 -15.75
6395 1 22.75 -5.25 -12.25
6396 1 22.75 -5.25 -8.75
6397 1 22.75 -5.25 -5.25
6398 1 22.75 -5.25 -1.75
6399 1 22.75 -5.25 1.75
6400 1 22.75 -5.25 5.25
6401 1 22.75 -5.25 8.75
6402 1 22.75 -5.25 12.25
6403 1 22.75 -5.25 15.75
6404 1 22.75 -5.25 19.25
6405 1 22.75 -5.25 22.75
6406 1 22.75 -1.75 -26.25
6407 1 22.75 -1.75 -22.75
6408 1 22.75 -1.75 -19.25
6409 1 22.75 -1.75 -15.75
6410 1 22.75 -1.75 -12.25
6411 1 22.75 -1.75 -8.75
6412 1 22.75 -1.75 -5.25
6413 1 22.75 -1.75 -1.75
6414 1 22.75 -1.75 1.75
6415 1 22.75 -1.75 5.25
6416 1 22.75 -1.75 8.75
6417 1 22.75 -1.75 12.25
6418 1 22.75 -1.75 15.75
6419 1 22.75 -1.75 19.25
6420 1 22.75 -1.75 22.75
6421 1 22.75 1.75 -26.25
6422 1 22.75 1.75 -22.75
6423 1 22.75 1.75 -19.25
6424 1 22.75 1.75 -15.75
6425 1 22.75 1.75 -12.25
6426 1 22.75 1.75 -8.75
6427 1 22.75 1.75 -5.25
6428 1 22.75 1.75 -1.75
6429 1 22.75 1.75 1.75
6430 1 22.75 1.75 5.25
6431 1 22.75 1.75 8.75
6432 1 22.75 1.75 12.25
6433 1 22.75 1.75 15.75
6434 1 22.75 1.75 19.25
6435 1 22.75 1.75 22.75
6436 1 22.75 5.25 -26.25
6437 1 22.75 5.25 -22.75
6438 1 22.75 5.25 -19.25
6439 1 22.75 5.25 -15.75
6440 1 22.75 5.25 -12.25
6441 1 22.75 5.25 -8.75
6442 1 22.75 5.25 -5.25
6443 1 22.75 5.25 -1.75
6444 1 22.75 5.25 1.75
6445 1 22.75 5.25 5.25
6446 1 22.75 5.25 8.75
6447 1 22.75 5.25 12.25
6448 1 22.75 5.25 15.75
6449 1 22.75 5.25 19.25
6450 1 22.75 5.25 22.75
6451 1 22.75 8.75 -26.25
6452 1 22.75 8.75 -22.75
6453 1 22.75 8.75 -19.25
6454 1 22.75 8.75 -15.75
6455 1 22.75 8.75 -12.25
6456 1 22.75 8.75 -8.75
6457 1 22.75 8.75 -5.25
6458 1 22.75 8.75 -1.75
6459 1 22.75 8.75 1.75
6460 1 22.75 8.75 5.25
6461 1 22.75 8.75 8.75
6462 1 22.75 8.75 12.25
6463 1 22.75 8.75 15.75
6464 1 22.75 8.75 19.25
6465 1 22.75 8.75 22.75
6466 1 22.75 12.25 -26.25
6467 1 22.75 12.25 -22.75
6468 1 22.75 12.25 -19.25
6469 1 22.75 12.25 -15.75
6470 1 22.75 12.25 -12.25
6471 1 22.75 12.25 -8.75
6472 1 22.75 12.25 -5.25
6473 1 22.75 12.25 -1.75
6474 1 22.75 12.25 1.75
6475 1 22.75 12.25 5.25
6476 1 22.75 12.25 8.75
6477 1 22.75 12.25 12.25
6478 1 22.75 12.25 15.75
6479 1 22.75 12.25 19.25
6480 1 22.75 12.25 22.75
6481 1 22.75 15.75 -26.25
6482 1 22.75 15.75 -22.75
6483 1 22.75 15.75 -19.25
6484 1 22.75 15.75 -15.75
6485 1 22.75 15.75 -12.25
6486 1 22.75 15.75 -8.75
6487 1 22.75 15.75 -5.25
6488 1 22.75 15.75 -1.75
6489 1 22.75 15.75 1.75
6490 1 22.75 15.75 5.25
6491 1 22.75 15.75 8.75
6492 1 22.75 15.75 12.25
6493 1 22.75 15.75 15.75
6494 1 22.75 15.75 19.25
6495 1 22.75 15.75 22.75
6496 1 22.75 19.25 -26.25
6497 1 22.75 19.25 -22.75
6498 1 22.75 19.25 -19.25
6499 1 22.75 19.25 -15.75
6500 1 22.75 19.25 -12.25
6501 1 22.75 19.25 -8.75
6502 1 22.75 19.25 -5.25
6503 1 22.75 19.25 -1.75
6504 1 22.75 19.25 1.75
6505 1 22.75 19.25 5.25
6506 1 22.75 19.25 8.75
6507 1 22.75 19.25 12.25
6508 1 22.75 19.25 15.75
6509 1 22.75 19.25 19.25
6510 1 22.75 19.25 22.75
6511 1 22.75 22.75 -26.25
6512 1 22.75 22.75 -22.75
6513 1 22.75 22.75 -19.25
6514 1 22.75 22.75 -15.75
6515 1 22.75 22.75 -12.25
6516 1 22.75 22.75 -8.75
6517 1 22.75 22.75 -5.25
6518 1 22.75 22.75 -1.75
6519 1 22.75 22.75 1.75
6520 1 22.75 22.75 5.25
6521 1 22.75 22.75 8.75
6522 1 22.75 22.75 12.25
6523 1 22.75 22.75 15.75
6524 1 22.75 22.75 19.25
6525 1 22.75 22.75 22.75
6526 1 24.5 -24.5 -24.5
6527 1 24.5 -24.5 -21.0
6528 1 24.5 -24.5 -17.5
6529 1 24.5 -24.5 -14.0
6530 1 24.5 -24.5 -10.5
6531 1 24.5 -24.5 -7.0
6532 1 24.5 -24.5 -3.5
6533 1 24.5 -24.5 0.0
6534 1 24.5 -24.5 3.5
6535 1 24.5 -24.5 7.0
6536 1 24.5 -24.5 10.5
6537 1 24.5 -24.5 14.0
6538 1 24.5 -24.5 17.5
6539 1 24.5 -24.5 21.0
6540 1 24.5 -24.5 24.5
6541 1 24.5 -21.0 -24.5
6542 1 24.5 -21.0 -21.0
6543 1 24.5 -21.0 -17.5
6544 1 24.5 -21.0 -14.0
6545 1 24.5 -21.0 -10.5
6546 1 24.5 -21.0 -7.0
6547 1 24.5 -21.0 -3.5
6548 1 24.5 -21.0 0.0
6549 1 24.5 -21.0 3.5
6550 1 24.5 -21.0 7.0
6551 1 24.5 -21.0 10.5
6552 1 24.5 -21.0 14.0
6553 1 24.5 -21.0 17.5
6554 1 24.5 -21.0 21.0
6555 1 24.5 -21.0 24.5
6556 1 24.5 -17.5 -24.5
6557 1 24.5 -17.5 -21.0
6558 1 24.5 -17.5 -17.5
6559 1 24.5 -17.5 -14.0
6560 1 24.5 -17.5 -10.5
6561 1 24.5 -17.5 -7.0
6562 1 24.5 -17.5 -3.5
6563 1 24.5 -17.5 0.0
6564 1 24.5 -17.5 3.5
6565 1 24.5 -17.5 7.0
6566 1 24.5 -17.5 10.5
6567 1 24.5 -17.5 14.0
6568 1 24.5 -17.5 17.5
6569 1 24.5 -17.5 21.0
6570 1 24.5 -17.5 24.5
6571 1 24.5 -14.0 -24.5
6572 1 24.5 -14.0 -21.0
6573 1 24.5 -14.0 -17.5
6574 1 24.5 -14.0 -14.0
6575 1 24.5 -14.0 -10.5
6576 1 24.5 -14.0 -7.0
6577 1 24.5 -14.0 -3.5
6578 1 24.5 -14.0 0.0
6579 1 24.5 -14.0 3.5
6580 1 24.5 -14.0 7.0
6581 1 24.5 -14.0 10.5
6582 1 24.5 -14.0 14.0
6583 1 24.5 -14.0 17.5
6584 1 24.5 -14.0 21.0
6585 1 24.5 -14.0 24.5
6586 1 24.5 -10.5 -24.5
6587 1 24.5 -10.5 -21.0
6588 1 24.5 -10.5 -17.5
6589 1 24.5 -10.5 -14.0
6590 1 24.5 -10.5 -10.5
6591 1 24.5 -10.5 -7.0
6592 1 24.5 -10.5 -3.5
6593 1 24.5 -10.5 0.0
6594 1 24.5 -10.5 3.5
6595 1 24.5 -10.5 7.0
6596 1 24.5 -10.5 10.5
6597 1 24.5 -10.5 14.0
6598 1 24.5 -10.5 17.5
6599 1 24.5 -10.5 21.0
6600 1 24.5 -10.5 24.5
6601 1 24.5 -7.0 -24.5
6602 1 24.5 -7.0 -21.0
6603 1 24.5 -7.0 -17.5
6604 1 24.5 -7.0 -14.0
6605 1 24.5 -7.0 -10.5
6606 1 24.5 -7.0 -7.0
6607 1 24.5 -7.0 -3.5
6608 1 24.5 -7.0 0.0
6609 1 24.5 -7.0 3.5
6610 1 24.5 -7.0 7.0
6611 1 24.5 -7.0 10.5
6612 1 24.5 -7.0 14.0
6613 1 24.5 -7.0 17.5
6614 1 24.5 -7.0 21.0
6615 1 24.5 -7.0 24.5
6616 1 24.5 -3.5 -24.5
6617 1 24.5 -3.5 -21.0
6618 1 24.5 -3.5 -17.5
6619 1 24.5 -3.5 -14.0
6620 1 24.5 -3.5 -10.5
6621 1 24.5 -3.5 -7.0
6622 1 24.5 -3.5 -3.5
6623 1 24.5 -3.5 0.0
6624 1 24.5 -3.5 3.5
6625 1 24.5 -3.5 7.0
6626 1 24.5 -3.5 10.5
6627 1 24.5 -3.5 14.0
6628 1 24.5 -3.5 17.5
6629 1 24.5 -3.5 21.0
6630 1 24.5 -3.5 24.5
6631 1 24.5 0.0 -24.5
6632 1 24.5 0.0 -21.0
6633 1 24.5 0.0 -17.5
6634 1 24.5 0.0 -14.0
6635 1 24.5 0.0 -10.5
6636 1 24.5 0.0 -7.0
6637 1 24.5 0.0 -3.5
6638 1 24.5 0.0 0.0
6639 1 24.5 0.0 3.5
6640 1 24.5 0.0 7.0
6641 1 24.5 0.0 10.5
6642 1 24.5 0.0 14.0
6643 1 24.5 0.0 17.5
6644 1 24.5 0.0 21.0
6645 1 24.5 0.0 24.5
6646 1 24.5 3.5 -24.5
6647 1 24.5 3.5 -21.0
6648 1 24.5 3.5 -17.5
6649 1 24.5 3.5 -14.0
6650 1 24.5 3.5 -10.5
6651 1 24.5 3.5 -7.0
6652 1 24.5 3.5 -3.5
6653 1 24.5 3.5 0.0
6654 1 24.5 3.5 3.5
6655 1 24.5 3.5 7.0
6656 1 24.5 3.5 10.5
6657 1 24.5 3.5 14.0
6658 1 24.5 3.5 17.5
6659 1 24.5 3.5 21.0
6660 1 24.5 3.5 24.5
6661 1 24.5 7.0 -24.5
6662 1 24.5 7.0 -21.0
6663 1 24.5 7.0 -17.5
6664 1 24.5 7.0 -14.0
6665 1 24.5 7.0 -10.5
6666 1 24.5 7.0 -7.0
6667 1 24.5 7.0 -3.5
6668 1 24.5 7.0 0.0
6669 1 24.5 7.0 3.5
6670 1 24.5 7.0 7.0
6671 1 24.5 7.0 10.5
6672 1 24.5 7.0 14.0
6673 1 24.5 7.0 17.5
6674 1 24.5 7.0 21.0
6675 1 24.5 7.0 24.5
6676 1 24.5 10.5 -24.5
6677 1 24.5 10.5 -21.0
6678 1 24.5 10.5 -17.5
6679 1 24.5 10.5 -14.0
6680 1 24.5 10.5 -10.5
6681 1 24.5 10.5 -7.0
6682 1 24.5 10.5 -3.5
6683 1 24.5 10.5 0.0
6684 1 24.5 10.5 3.5
6685 1 24.5 10.5 7.0
6686 1 24.5 10.5 10.5
6687 1 24.5 10.5 14.0
6688 1 24.5 10.5 17.5
6689 1 24.5 10.5 21.0
6690 1 24.5 10.5 24.5
6691 1 24.5 14.0 -24.5
6692 1 24.5 14.0 -21.0
6693 1 24.5 14.0 -17.5
6694 1 24.5 14.0 -14.0
6695 1 24.5 14.0 -10.5
6696 1 24.5 14.0 -7.0
6697 1 24.5 14.0 -3.5
6698 1 24.5 14.0 0.0
6699 1 24.5 14.0 3.5
6700 1 24.5 14.0 7.0
6701 1 24.5 14.0 10.5
6702 1 24.5 14.0 14.0
6703 1 24.5 14.0 17.5
6704 1 24.5 14.0 21.0
6705 1 24.5 14.0 24.5
6706 1 24.5 17.5 -24.5
6707 1 24.5 17.5 -21.0
6708 1 24.5 17.5 -17.5
6709 1 24.5 17.5 -14.0
6710 1 24.5 17.5 -10.5
6711 1 24.5 17.5 -7.0
6712 1 24.5 17.5 -3.5
6713 1 24.5 17.5 0.0
6714 1 24.5 17.5 3.5
6715 1 24.5 17.5 7.0
6716 1 24.5 17.5 10.5
6717 1 24.5 17.5 14.0
6718 1 24.5 17.5 17.5
6719 1 24.5 17.5 21.0
6720 1 24.5 17.5 24.5
6721 1 24.5 21.0 -24.5
6722 1 24.5 21.0 -21.0
6723 1 24.5 21.0 -17.5
6724 1 24.5 21.0 -14.0
6725 1 24.5 21.0 -10.5
6726 1 24.5 21.0 -7.0
6727 1 24.5 21.0 -3.5
6728 1 24.5 21.0 0.0
6729 1 24.5 21.0 3.5
6730 1 24.5 21.0 7.0
6731 1 24.5 21.0 10.5
6732 1 24.5 21.0 14.0
6733 1 24.5 21.0 17.5
6734 1 24.5 21.0 21.0
6735 1 24.5 21.0 24.5
6736 1 24.5 24.5 -24.5
6737 1 24.5 24.5 -21.0
6738 1 24.5 24.5 -17.5
6739 1 24.5 24.5 -14.0
6740 1 24.5 24.5 -10.5
6741 1 24.5 24.5 -7.0
6742 1 24.5 24.5 -3.5
6743 1 24.5 24.5 0.0
6744 1 24.5 24.5 3.5
6745 1 24.5 24.5 7.0
6746 1 24.5 24.5 10.5
6747 1 24.5 24.5 14.0
6748 1 24.5 24.5 17.5
6749 1 24.5 24.5 21.0
6750 1 24.5 24.5 24.5
